units       metal
boundary    p p p
atom_style  atomic
pair_style  dftbplus
