Geometry = GenFormat {
3  S
 O H
     1    1    0.00000000000E+00  -0.10000000000E+01   0.00000000000E+00
     2    2    0.00000000000E+00   0.00000000000E+00   0.78306400000E+00
     3    2    0.00000000000E+00   0.00000000000E+00  -0.78306400000E+00
   0.00000000000E+00   0.00000000000E+00   0.00000000000E+00
   0.50000000000E+01   0.00000000000E+00   0.00000000000E+00
   0.00000000000E+00   0.50000000000E+01   0.00000000000E+00
   0.00000000000E+00   0.00000000000E+00   0.50000000000E+01
}
Driver = {}
Hamiltonian = DFTB {
  SCC = Yes
  SCCTolerance = 1.000000000000000E-10  # Very small!
  MaxSCCIterations = 1000
  Mixer = Anderson {
    MixingParameter = 5.000000000000000E-002
    Generations = 8
  }
  MaxAngularMomentum = {
    O = "p"
    H = "s"
  }
  Charge = 0.000000000000000E+000
  SpinPolarisation = Colinear {
    UnpairedElectrons = 2.00000000000000
    InitialSpins = {
      AtomSpin {
        Atoms = 1:-1
        SpinPerAtom = 0
      }
    }
}
  SpinConstants = {
    O = {
 -3.000000000000000E-002 -2.800000000000000E-002
 -2.800000000000000E-002 -2.600000000000000E-002
    }
    H = {
 -6.400000000000000E-002
    }
  }
  Eigensolver = Standard {}
  Filling = Fermi {
    Temperature [Kelvin] = 1.000000000000000E-006
  }
  SlaterKosterFiles = Type2FileNames {
    Separator = "-"
    Suffix = ".skf"
  }
  KPointsAndWeights = {
 0.000000000000000E+000 0.000000000000000E+000 0.000000000000000E+000 1.00000000000000
  }
}

Options = {
  CalculateForces = Yes
  WriteAutotestTag = Yes
}

ParserOptions = {
  ParserVersion = 3
}

Parallel {
  # Allow OMP threads explicitely to test for hybrid parallelisation with
  # MPI-binary. (Check the manual before using this in production runs!)
  UseOmpThreads = Yes
}

