Geometry = GenFormat {
 3  S
  O H
     1    1    0.00000000000E+00   1.00000000000E+00   0.00000000000E+00
     2    2    0.00000000000E+00   0.00000000000E+00   0.78306400000E+00
     3    2    0.00000000000E+00   0.00000000000E+00  -0.78306400000E+00
     0 0 0
     2 0 0
     0 2 0
     0 0 2
}

Driver = {}

Hamiltonian = DFTB {
  SCC = Yes
  SCCTolerance = 1.0E-10
  Charge = +1
  MaxAngularMomentum = {
    O = "p"
    H = "s"
  }
  Filling = Fermi {
    Temperature [Kelvin] = 1000
  }
  KPointsAndWeights = SupercellFolding {
    2 0 0
    0 2 0
    0 0 2
    0.5 0.5 0.5
  }
  SlaterKosterFiles = Type2FileNames {
    Prefix = "slakos/origin/mio-1-1/"
    Separator = "-"
    Suffix  = ".skf"
  }
  ElectricField = {
    PointCharges = {
      GaussianBlurWidth = 1.0
      CoordsAndCharges = {
        -2 0 0  1.0
      }
    }
    PointCharges = {
      CoordsAndCharges = {
         2 0 0 -1.0
      }
    }
  }
}

Options = {
  WriteAutotestTag = Yes
}

Analysis = {
  PrintForces = Yes
  ExternalChargeDerivatives = Yes
  PerturbSccTol = 1.0E-8
}

ParserOptions = {
  ParserVersion = 14
}

Parallel {
  # Allow OMP threads explicitely to test for hybrid parallelisation with
  # MPI-binary. (Check the manual before using this in production runs!)
  UseOmpThreads = Yes
}
