Geometry = GenFormat {
    <<< "butadiene.gen"
}

Driver = {}

Hamiltonian = DFTB {
    SCC = Yes
    SCCTolerance = 1e-10  # Very tight for test purposes only
    MaxAngularMomentum = {
        C = "p"
        H = "s"
    }
    SlaterKosterFiles = Type2FileNames {
        Prefix = "./"
        Separator = "-"
        Suffix = ".skf"
    }
}

ExcitedState {
    Casida {
        NrOfExcitations = 5
        StateOfInterest = 1
        Symmetry = Singlet
        WriteEigenvectors = Yes
    }
}

Options {
    WriteAutotestTag = Yes
    WriteDetailedXML = Yes
}

ParserOptions {
    ParserVersion = 5
}
