Geometry = GenFormat {
  <<< "geo.gen"
}

Transport {
    Device {
      AtomRange = 1 4
    }
    Contact {
      Id = "source"
      AtomRange = 5 8
      ShiftAccuracy = 1e-6
    }
    Contact {
      Id = "drain"
      AtomRange = 9 12
      ShiftAccuracy = 1e-6
    }
  Task = ContactHamiltonian {
    ContactId = "source"
  }
}

Hamiltonian = DFTB {
  SCC = Yes
  SCCTolerance = 1e-8
  MaxAngularMomentum = {
    Si = s
    H = s
  }
  Filling = Fermi {
    Temperature [Kelvin] = 0
  }
  SlaterKosterFiles = Type2Filenames {
    Separator = "-"
    Suffix = ".skf"
  }
  KPointsAndWeights = SupercellFolding {
    1 0 0
    0 1 0
    0 0 1
    0.0 0.0 0.0
  }
  OldSKInterpolation = Yes
  Electrostatics = Poisson {
    #Poissonbox [Angstrom] = 20.0 20.0 1.0
    MinimalGrid [Angstrom] = 0.3 0.3 0.3
  }
}

Options = {
  WriteAutotestTag = Yes
}

ParserOptions = {
  ParserVersion = 3
}
