Geometry = genFormat {
16 C
 C H O
    1    1    1.873484E+00   -5.165840E-01    7.52600E-03
    2    2    1.861861E+00   -1.183153E+00   -8.54163E-01
    3    3    3.102616E+00    1.979510E-01   -8.11390E-02
    4    1    6.544350E-01    3.951130E-01   -2.47660E-02
    5    2    6.982530E-01    1.079609E+00    8.28729E-01
    6    2    7.030090E-01    1.007751E+00   -9.27584E-01
    7    1   -6.522810E-01   -3.943840E-01    1.52540E-02
    8    2   -7.009660E-01   -1.001200E+00    9.21951E-01
    9    2   -7.023970E-01   -1.081057E+00   -8.32390E-01
   10    2    3.162288E+00    7.628060E-01    6.93902E-01
   11    2    1.848673E+00   -1.141101E+00    9.06867E-01
   12    1   -1.869447E+00    5.097750E-01   -2.46920E-02
   13    2   -1.846507E+00    1.199186E+00    8.26058E-01
   14    2   -1.855946E+00    1.107449E+00   -9.42046E-01
   15    3   -3.028291E+00   -3.186460E-01    2.50470E-02
   16    2   -3.800011E+00    2.517480E-01   -1.25210E-02
}

Driver {}

Hamiltonian = DFTB {
  Solvation = Cosmo {
    Solvent = fromConstants { # CS2
      Epsilon = 2.64  # Dielectric constant of the solvent
      MolecularMass = 76.14  # mass of the solvent molecule
      Density = 1.26  # mol density of the solvent
    }
    State = "reference"
    RadiiScaling {
       C = 1.2
       H = 1.2
       O = 1.2
    }
    AngularGrid = 330
    Solver = DomainDecomposition {
      MaxMoment = 6
      Accuracy = 1e-10
      Regularisation = 0.1
    }
  }
  SCC = Yes
  SccTolerance = 1e-8
  MaxAngularMomentum {
    H = "s"
    C = "p"
    O = "p"
  }
  SlaterKosterFiles = Type2FileNames {
Prefix = {slakos/origin/3ob-3-1/}
    Separator = "-"
    Suffix = ".skf"
  }
  HubbardDerivs {
     H = -0.1857
     C = -0.1492
     O = -0.1575
  }
  ThirdOrderFull = Yes
  HCorrection = Damping { Exponent = 4.0 }
}

Options { WriteAutotestTag = Yes }
Analysis { CalculateForces = Yes }
ParserOptions { ParserVersion = 9 }
Parallel { UseOmpThreads = Yes }
