Geometry = GenFormat {
    60  C
    C
     1    1    0.34512664980E+01   0.68500000000E+00   0.00000000000E+00
     2    1    0.34512664980E+01  -0.68500000000E+00   0.00000000000E+00
     3    1   -0.34512664980E+01   0.68500000000E+00   0.00000000000E+00
     4    1   -0.34512664980E+01  -0.68500000000E+00   0.00000000000E+00
     5    1    0.68500000000E+00   0.00000000000E+00   0.34512664980E+01
     6    1   -0.68500000000E+00   0.00000000000E+00   0.34512664980E+01
     7    1    0.68500000000E+00   0.00000000000E+00  -0.34512664980E+01
     8    1   -0.68500000000E+00   0.00000000000E+00  -0.34512664980E+01
     9    1    0.00000000000E+00   0.34512664980E+01   0.68500000000E+00
    10    1    0.00000000000E+00   0.34512664980E+01  -0.68500000000E+00
    11    1    0.00000000000E+00  -0.34512664980E+01   0.68500000000E+00
    12    1    0.00000000000E+00  -0.34512664980E+01  -0.68500000000E+00
    13    1    0.30038098900E+01   0.14090000000E+01   0.11714566080E+01
    14    1    0.30038098900E+01   0.14090000000E+01  -0.11714566080E+01
    15    1    0.30038098900E+01  -0.14090000000E+01   0.11714566080E+01
    16    1    0.30038098900E+01  -0.14090000000E+01  -0.11714566080E+01
    17    1   -0.30038098900E+01   0.14090000000E+01   0.11714566080E+01
    18    1   -0.30038098900E+01   0.14090000000E+01  -0.11714566080E+01
    19    1   -0.30038098900E+01  -0.14090000000E+01   0.11714566080E+01
    20    1   -0.30038098900E+01  -0.14090000000E+01  -0.11714566080E+01
    21    1    0.14090000000E+01   0.11714566080E+01   0.30038098900E+01
    22    1    0.14090000000E+01  -0.11714566080E+01   0.30038098900E+01
    23    1   -0.14090000000E+01   0.11714566080E+01   0.30038098900E+01
    24    1   -0.14090000000E+01  -0.11714566080E+01   0.30038098900E+01
    25    1    0.14090000000E+01   0.11714566080E+01  -0.30038098900E+01
    26    1    0.14090000000E+01  -0.11714566080E+01  -0.30038098900E+01
    27    1   -0.14090000000E+01   0.11714566080E+01  -0.30038098900E+01
    28    1   -0.14090000000E+01  -0.11714566080E+01  -0.30038098900E+01
    29    1    0.11714566080E+01   0.30038098900E+01   0.14090000000E+01
    30    1   -0.11714566080E+01   0.30038098900E+01   0.14090000000E+01
    31    1    0.11714566080E+01   0.30038098900E+01  -0.14090000000E+01
    32    1   -0.11714566080E+01   0.30038098900E+01  -0.14090000000E+01
    33    1    0.11714566080E+01  -0.30038098900E+01   0.14090000000E+01
    34    1   -0.11714566080E+01  -0.30038098900E+01   0.14090000000E+01
    35    1    0.11714566080E+01  -0.30038098900E+01  -0.14090000000E+01
    36    1   -0.11714566080E+01  -0.30038098900E+01  -0.14090000000E+01
    37    1    0.25804566080E+01   0.72400000000E+00   0.22798098900E+01
    38    1    0.25804566080E+01   0.72400000000E+00  -0.22798098900E+01
    39    1    0.25804566080E+01  -0.72400000000E+00   0.22798098900E+01
    40    1    0.25804566080E+01  -0.72400000000E+00  -0.22798098900E+01
    41    1   -0.25804566080E+01   0.72400000000E+00   0.22798098900E+01
    42    1   -0.25804566080E+01   0.72400000000E+00  -0.22798098900E+01
    43    1   -0.25804566080E+01  -0.72400000000E+00   0.22798098900E+01
    44    1   -0.25804566080E+01  -0.72400000000E+00  -0.22798098900E+01
    45    1    0.72400000000E+00   0.22798098900E+01   0.25804566080E+01
    46    1    0.72400000000E+00  -0.22798098900E+01   0.25804566080E+01
    47    1   -0.72400000000E+00   0.22798098900E+01   0.25804566080E+01
    48    1   -0.72400000000E+00  -0.22798098900E+01   0.25804566080E+01
    49    1    0.72400000000E+00   0.22798098900E+01  -0.25804566080E+01
    50    1    0.72400000000E+00  -0.22798098900E+01  -0.25804566080E+01
    51    1   -0.72400000000E+00   0.22798098900E+01  -0.25804566080E+01
    52    1   -0.72400000000E+00  -0.22798098900E+01  -0.25804566080E+01
    53    1    0.22798098900E+01   0.25804566080E+01   0.72400000000E+00
    54    1   -0.22798098900E+01   0.25804566080E+01   0.72400000000E+00
    55    1    0.22798098900E+01   0.25804566080E+01  -0.72400000000E+00
    56    1   -0.22798098900E+01   0.25804566080E+01  -0.72400000000E+00
    57    1    0.22798098900E+01  -0.25804566080E+01   0.72400000000E+00
    58    1   -0.22798098900E+01  -0.25804566080E+01   0.72400000000E+00
    59    1    0.22798098900E+01  -0.25804566080E+01  -0.72400000000E+00
    60    1   -0.22798098900E+01  -0.25804566080E+01  -0.72400000000E+00
}

Driver = {}

Hamiltonian = DFTB {
    SCC = Yes
    SCCTolerance = 1.0E-10 # abnormally tight tolerance used for accuracy
    MaxAngularMomentum = {
        C = "p"
    }
    Charge = 0.0
    SpinPolarisation = Colinear {
        UnpairedElectrons = 0.0
    }
    SpinConstants = {
        C = {-0.023} # HOMO Wpp
    }
    Filling = Fermi {
        Temperature [Kelvin] = 273.15
    }
    SlaterKosterFiles = Type2FileNames {
Prefix = {slakos/origin/mio-1-1/}
        Separator = "-"
        Suffix = ".skf"
    }
}

Options = {
    WriteAutotestTag = Yes
    TimingVerbosity = -1
}

InputVersion = 20.1

ElectronDynamics = {
    Steps = 4000
    TimeStep [au] = 0.2
    Perturbation = Kick {
        PolarizationDirection = "x"
        SpinType = Triplet
    }
    FieldStrength [v/a] = 0.001
}

Parallel {
  # Allow OMP threads explicitely to test for hybrid parallelisation with
  # MPI-binary. (Check the manual before using this in production runs!)
  UseOmpThreads = Yes
  # Due to small size of problem, allow 2 MPI processors by shrinking blocks
  Blacs = BlockSize {
    16
  }
}
