Geometry = GenFormat {
   15  C
  H  C  O  N
    1 1    0.2552990566E+00   -0.2732381521E+01   -0.3718512039E-06
    2 1    0.2089998603E+01    0.9487324123E+00    0.2412721910E-05
    3 1   -0.1987362303E+01   -0.1791017645E+01    0.2271814212E-06
    4 1   -0.3366243454E+01    0.3306148659E+00   -0.2929905496E-06
    5 1   -0.2656604479E+01    0.1703870027E+01    0.8795577106E+00
    6 1   -0.2656603745E+01    0.1703869686E+01   -0.8795581188E+00
    7 2    0.1309493179E+01   -0.9856424340E+00    0.1052580251E-05
    8 2    0.6789163829E-02    0.1114849414E+01    0.1371150643E-05
    9 2   -0.1206583201E+01    0.3748075527E+00    0.7171849060E-06
   10 2   -0.1119851452E+01   -0.1143475649E+01    0.4663006169E-06
   11 2   -0.2545493665E+01    0.1054051950E+01   -0.2929484117E-07
   12 3    0.2454960128E+01   -0.1550756340E+01    0.1217684163E-05
   13 3    0.4510788911E-01    0.2387995504E+01    0.1605607826E-05
   14 4    0.1712557481E+00   -0.1719712894E+01    0.2696407952E-06
   15 4    0.1231586528E+01    0.4030500719E+00    0.1762324114E-05
}

Driver = {}

Hamiltonian = DFTB {
  SCC = Yes
  SCCTolerance = 1.0E-9
  Mixer = Broyden {}
  
  MaxAngularMomentum = {
   H = "s"
   C = "p"
   N = "p"
   O = "p"
  }

  SlaterKosterFiles = Type2FileNames {
    Prefix = "slakos/origin/ob2-1-1/shift/"
    Separator = "-"
    Suffix = ".skf"
  }

  SpinPolarisation = Colinear {
    UnpairedElectrons = 2
  }

  SpinConstants = {
    O = {
         -0.04782
         -0.03335
         -0.03335
         -0.03307
    }
    N = {
         -0.04687
         -0.03170
         -0.03170
         -0.03072
    }
    C = {
         -0.04559
         -0.02930
         -0.02930
         -0.02755
    }
    H = {
         -0.07925
    }
    ShellResolvedSpin = Yes
  }

  OnSiteCorrection= {
    Huu = { 0.00000 }
    Hud = { 0.00000 }
    Hlc = { 0.00000 }
    Cuu = { 0.00000  0.05691
            0.05691 -0.01125 }
    Cud = { 0.00000  0.12347
            0.12347  0.03118 }
    Clc = { 0.00000  0.10091
            0.10091 -0.00248 }
    Nuu = { 0.00000  0.06774
            0.06774 -0.00895 }
    Nud = { 0.00000  0.14371
            0.14371  0.04149 }
    Nlc = { 0.00000  0.12636
            0.12636 -0.00660 }
    Ouu = { 0.00000  0.07858
            0.07858 -0.00665 }
    Oud = { 0.00000  0.16395
            0.16395  0.05179 }
    Olc = { 0.00000  0.15181
            0.15181 -0.01071 }
  }

  RangeSeparated = LC {
    Screening = MatrixBased {}
  }
  
}

Options = {
  WriteAutotestTag = Yes
}

Analysis {
  CalculateForces = Yes
}

ParserOptions = {
  ParserVersion = 8
}
