Geometry = GenFormat {
    <<< geo.gen
}

Driver = {}

Hamiltonian = DFTB {
    SCC = Yes
    ShellResolvedSCC = No
    SCCTolerance = 1.0E-8
    MaxAngularMomentum = {
        C = "p"
        H = "s"
    }
    Charge = 0.0
    Filling = Fermi {
        Temperature [Kelvin] = 100.0
    }
    SlaterKosterFiles = Type2FileNames {
        Prefix = {./}
        Separator = "-"
        Suffix = ".skf"
    }
}

Options = {
    WriteAutotestTag = Yes
}

Analysis = {
    MullikenAnalysis = Yes
    CalculateForces = Yes
}

ParserOptions = {
    ParserVersion = 13
}

Parallel {
    # Allow OMP threads explicitely to test for hybrid parallelisation with
    # MPI-binary. (Check the manual before using this in production runs!)
    UseOmpThreads = Yes
}
