Geometry = GenFormat {
    6  F
 Si
    1 1    0.0000000000E+00    0.0000000000E+00    0.0000000000
    2 1    0.0000000000E+00    0.0000000000E+00    0.2500000000
    5 1    0.6666666667E+00    0.3333333333E+00    0.3333333333
    6 1    0.6666666667E+00    0.3333333333E+00    0.5833333333
    3 1    0.3333333333E+00    0.6666666667E+00    0.9166666667
    4 1    0.3333333333E+00    0.6666666667E+00    0.6666666667
    0.0000000000E+00    0.0000000000E+00    0.0000000000E+00
    0.0000000000E+00    0.3860491552E+01    0.0000000000E+00
    0.3343281900E+01   -0.1930244705E+01    0.0000000000E+00
    0.0000000000E+00    0.0000000000E+00    0.9456402584E+01
}
Driver = gDIIS {
 LatticeOpt = Yes
 FixAngles = Yes
 MaxLatticeStep = 1.0E-2
 MaxForceComponent = 1.0e-12
}
Hamiltonian = DFTB {
  MaxAngularMomentum = {
    Si = "p"
  }
  Eigensolver = Standard {}
  Filling = Fermi {
    Temperature [Kelvin] = 1.0E-8
  }
  SlaterKosterFiles = {
    Si-Si = "./Si-Si.skf"
  }
  KPointsAndWeights = SupercellFolding {
   10 0 0
   0 10 0
   0 0 6
   0.0 0.0 0.5
  }
}
Options = {
  WriteAutotestTag = Yes
  AtomResolvedEnergies = Yes
  ShowFoldedCoords = Yes
}

ParserOptions = {
  ParserVersion = 3
}

Parallel {
  # Allow OMP threads explicitely to test for hybrid parallelisation with
  # MPI-binary. (Check the manual before using this in production runs!)
  UseOmpThreads = Yes
}

