Geometry = GenFormat {
8  S
 Si
     1    1    0.00000000000E+00   0.00000000000E+00   0.00000000000E+00
     2    1    0.13567730000E+01   0.13567730000E+01   0.13567730000E+01
     3    1    0.27135460000E+01   0.27135460000E+01   0.00000000000E+00
     4    1    0.40703190000E+01   0.40703190000E+01   0.13567730000E+01
     5    1    0.27135460000E+01   0.00000000000E+00   0.27135460000E+01
     6    1    0.40703190000E+01   0.13567730000E+01   0.40703190000E+01
     7    1    0.00000000000E+00   0.27135460000E+01   0.27135460000E+01
     8    1    0.13567730000E+01   0.40703190000E+01   0.40703190000E+01
   0.00000000000E+00   0.00000000000E+00   0.00000000000E+00
   0.54270920000E+01   0.00000000000E+00   0.00000000000E+00
   0.00000000000E+00   0.54270920000E+01   0.00000000000E+00
   0.00000000000E+00   0.00000000000E+00   0.54270920000E+01
}

Driver = VelocityVerlet {
  Steps = 20
  TimeStep [Femtosecond] = 1.0
  Thermostat = None {}
  Velocities [AA/ps] = {
     -3.14009985     -3.74392480      5.71958238
     12.09494654      7.63905920     -7.74484869
      2.59840240      1.51940767      3.58204064
     -6.42733892      2.74235935     -5.33303973
     -0.93146853     -1.94606180      0.04047860
     -5.43460473     -0.34238003      2.38839689
      2.04707285     -5.69835337     -7.16955900
     -0.80690977     -0.17010622      8.51694891
  }
  OutputPrefix = "geo_end"
}

Hamiltonian = DFTB {
  MaxAngularMomentum = {
    Si = "p"
  }
  Charge = 0.0
  Eigensolver = Standard {}
  Filling = Fermi {
    Temperature [Kelvin] = 1200.0
  }
  SlaterKosterFiles = Type2FileNames {
    Separator = "-"
    Suffix = ".skf"
  }
  KPointsAndWeights = SupercellFolding {
   2 0 0
   0 2 0
   0 0 2
   0.5 0.5 0.5
  }
}

Options = {
  WriteAutotestTag = Yes
  RandomSeed = 12345
}

ParserOptions = {
  ParserVersion = 3
}

Parallel {
  # Allow OMP threads explicitely to test for hybrid parallelisation with
  # MPI-binary. (Check the manual before using this in production runs!)
  UseOmpThreads = Yes
}

