Geometry = GenFormat {
40  S
 C
     1    1    0.56339591000E+02   0.54893350000E+02   0.21079270000E+01
     2    1    0.55561595000E+02   0.55853913000E+02   0.42341610000E+01
     3    1    0.54524937000E+02   0.56527344000E+02   0.21079310000E+01
     4    1    0.53330796000E+02   0.56847284000E+02   0.42341950000E+01
     5    1    0.52096225000E+02   0.56782619000E+02   0.21079440000E+01
     6    1    0.50942090000E+02   0.56339591000E+02   0.42341610000E+01
     7    1    0.49981527000E+02   0.55561595000E+02   0.21079270000E+01
     8    1    0.49308096000E+02   0.54524937000E+02   0.42341650000E+01
     9    1    0.48988156000E+02   0.53330796000E+02   0.21079610000E+01
    10    1    0.49052821000E+02   0.52096225000E+02   0.42341780000E+01
    11    1    0.49495849000E+02   0.50942090000E+02   0.21079270000E+01
    12    1    0.50273845000E+02   0.49981527000E+02   0.42341610000E+01
    13    1    0.51310503000E+02   0.49308096000E+02   0.21079310000E+01
    14    1    0.52504644000E+02   0.48988156000E+02   0.42341950000E+01
    15    1    0.53739215000E+02   0.49052821000E+02   0.21079440000E+01
    16    1    0.54893350000E+02   0.49495849000E+02   0.42341610000E+01
    17    1    0.55853913000E+02   0.50273845000E+02   0.21079270000E+01
    18    1    0.56527344000E+02   0.51310503000E+02   0.42341650000E+01
    19    1    0.56847284000E+02   0.52504644000E+02   0.21079610000E+01
    20    1    0.56782619000E+02   0.53739215000E+02   0.42341780000E+01
    21    1    0.56339591000E+02   0.54893350000E+02   0.69248000000E+00
    22    1    0.55561595000E+02   0.55853913000E+02   0.28187140000E+01
    23    1    0.54524937000E+02   0.56527344000E+02   0.69247200000E+00
    24    1    0.53330796000E+02   0.56847284000E+02   0.28186760000E+01
    25    1    0.52096225000E+02   0.56782619000E+02   0.69246300000E+00
    26    1    0.50942090000E+02   0.56339591000E+02   0.28187140000E+01
    27    1    0.49981527000E+02   0.55561595000E+02   0.69248000000E+00
    28    1    0.49308096000E+02   0.54524937000E+02   0.28187060000E+01
    29    1    0.48988156000E+02   0.53330796000E+02   0.69244200000E+00
    30    1    0.49052821000E+02   0.52096225000E+02   0.28186970000E+01
    31    1    0.49495849000E+02   0.50942090000E+02   0.69248000000E+00
    32    1    0.50273845000E+02   0.49981527000E+02   0.28187140000E+01
    33    1    0.51310503000E+02   0.49308096000E+02   0.69247200000E+00
    34    1    0.52504644000E+02   0.48988156000E+02   0.28186760000E+01
    35    1    0.53739215000E+02   0.49052821000E+02   0.69246300000E+00
    36    1    0.54893350000E+02   0.49495849000E+02   0.28187140000E+01
    37    1    0.55853913000E+02   0.50273845000E+02   0.69248000000E+00
    38    1    0.56527344000E+02   0.51310503000E+02   0.28187060000E+01
    39    1    0.56847284000E+02   0.52504644000E+02   0.69244200000E+00
    40    1    0.56782619000E+02   0.53739215000E+02   0.28186970000E+01
   0.00000000000E+00   0.00000000000E+00   0.00000000000E+00
   0.10583544000E+03   0.00000000000E+00   0.00000000000E+00
   0.00000000000E+00   0.10583544000E+03   0.00000000000E+00
   0.00000000000E+00   0.00000000000E+00   0.42524680000E+01
}
Driver = {}
Hamiltonian = DFTB {
  SCC = No
  MaxAngularMomentum = {
    C = "p"
  }
  Filling = Fermi {
    Temperature [Kelvin] = 0.0
  }
  SlaterKosterFiles = {
    C-C = "./C-C.skf"
  }
  
  KPointsAndWeights = {
    0.0  0.0   0.0    1.0
  }
  ElectricField = {
    External = {
      Direction = 1.0 1.0 0.0
      Strength [v/m] = 1E9
    }
  }
  # Setting old legacy finite difference value to match autotest example.
  Differentiation = FiniteDiff {
    Delta = 1e-2
  }
}

Options = {
  WriteAutotestTag = Yes
}

ParserOptions = {
  ParserVersion = 5
}

Analysis = {
  MullikenAnalysis = Yes
  CalculateForces = Yes
}

Parallel {
  # Allow OMP threads explicitely to test for hybrid parallelisation with
  # MPI-binary. (Check the manual before using this in production runs!)
  UseOmpThreads = Yes
}

