Geometry = GenFormat {
3  C
 H
     1    1    0.00000000000E+00   0.00000000000E+00   0.00000000000E+00
     2    1    0.80000000000E+00   0.00000000000E+00   0.00000000000E+00
     3    1    0.20000000000E+00   0.60000000000E+00   0.00000000000E+00
}

Driver = VelocityVerlet {
  Steps = 500
  TimeStep [Femtosecond] = 0.100000000000000
  Plumed = Yes
  Thermostat = None {
    InitialTemperature [Kelvin] = 273.150000000000
  }
}

Hamiltonian = DFTB {
  SCC = Yes
  SccTolerance = 1e-10 # exteremly tight, only for testing purposes
  MaxSCCIterations = 1000
  Mixer = Broyden {
    MixingParameter = 5.000000000000000E-002
  }
  MaxAngularMomentum = {
    H = "s"
  }
  Charge = 1.00000000000000
  SpinPolarisation = {}
  Eigensolver = Standard {}  # Slow!
  Filling = Fermi {
    Temperature [Kelvin] = 1.16045050000000
  }
  SlaterKosterFiles = {
    H-H = "H-H.skf"
  }
  ReadInitialCharges = No
}

Options = {
  WriteAutotestTag = Yes
  RandomSeed = 12321
}

ParserOptions = {
  ParserVersion = 3
}
Parallel {
  # Allow OMP threads explicitely to test for hybrid parallelisation with
  # MPI-binary. (Check the manual before using this in production runs!)
  UseOmpThreads = Yes
}

