# The choosen periodic boundary condition is artificial and serves only the
# testing of the dispersion and damped H interaction in periodic systems.
Geometry = GenFormat {
  60 S
N C O H     
   1   1      .000000      .000000      .000000
   2   2      .000000      .000000     1.377499
   3   2     1.354401      .000000     1.725880
   4   1     2.166449      .000000      .604904
   5   2     1.322596      .000000     -.397524
   6   2     1.645266      .000000     3.109724
   7   1      .597649      .000000     3.966517
   8   2     -.659538      .000000     3.482366
   9   1    -1.053111      .000000     2.209839
  10   1     2.896355      .000000     3.597855
  11   1      .934216     -.001022     6.824689
  12   2     -.230158     -.001035     7.567935
  13   1     -.002646     -.002054     8.943115
  14   2     1.252458     -.003059     9.508498
  15   2     2.383009     -.003040     8.764197
  16   2     2.237645     -.002010     7.306037
  17   3    -1.353381     -.001049     7.090507
  18   3     3.200892     -.002008     6.531839
  19   2     3.767832     -.003027     9.342828
  20   4    -1.438052      .000000     4.241291
  21   4     -.819663      .000000     -.589118
  22   4     1.597537      .000000    -1.444497
  23   4     3.671435      .000000     2.953044
  24   4     3.062879      .000000     4.606696
  25   4      .808806     -.001012     5.786382
  26   4     4.331856     -.881006     9.007159
  27   4     4.332108      .874992     9.008148
  28   4     3.740851     -.004057    10.436648
  29   4     1.270885     -.003084    10.593501
  30   4     -.835607     -.002059     9.515829
  31   1     1.597537     3.400000    -1.444497
  32   2     1.247661     3.400000     -.112172
  33   2     2.469158     3.400000      .568794
  34   1     3.539297     3.400000     -.309165
  35   2     2.977728     3.400000    -1.493052
  36   2     2.398996     3.400000     1.981134
  37   1     1.168114     3.400000     2.543740
  38   2      .075127     3.400000     1.756149
  39   1      .017676     3.400000      .425389
  40   1     3.485074     3.400000     2.771027
  41   1      .767684     3.398978     5.393667
  42   2     -.547285     3.398965     5.816795
  43   1     -.676522     3.397946     7.204663
  44   2      .393818     3.396941     8.070294
  45   2     1.676342     3.396960     7.637555
  46   2     1.906109     3.397990     6.190293
  47   3    -1.512409     3.398951     5.069731
  48   3     3.034409     3.397992     5.686144
  49   2     2.868781     3.396973     8.548948
  50   4     -.870618     3.400000     2.292447
  51   4      .954387     3.400000    -2.222484
  52   4     3.509579     3.400000    -2.435857
  53   4     4.398514     3.400000     2.344228
  54   4     3.389897     3.400000     3.789079
  55   4      .910111     3.398988     4.357557
  56   4     3.499566     2.518994     8.367546
  57   4     3.499559     4.274992     8.368566
  58   4     2.564861     3.395943     9.600043
  59   4      .136056     3.396916     9.124396
  60   4    -1.627633     3.397941     7.547028
   0.0  0.0  0.0
   8.0  0.0  0.0  
   0.0  8.0  0.0
   0.0  0.0 15.0
}
Driver = {}

Hamiltonian = DFTB {
  KPointsAndWeights = { 
    0.0 0.0 0.0   1.0
  }
  SCC = Yes
  SCCTolerance = 1e-5
  MaxSCCIterations = 100
  MaxAngularMomentum = {
    O = "p"
    H = "s"
    N = "p"
    C = "p"
  }
  SlaterKosterFiles = Type2FileNames {
    Separator = "-"
    Suffix = ".skf"
  }
  Dispersion = LennardJones {
    Parameters = UFFParameters {}
  }
}

Options = {
  WriteAutotestTag = Yes
  CalculateForces = Yes
}

ParserOptions = {
  ParserVersion = 3
}

Parallel {
  # Allow OMP threads explicitely to test for hybrid parallelisation with
  # MPI-binary. (Check the manual before using this in production runs!)
  UseOmpThreads = Yes
}

