Geometry = GenFormat { # CH3 radical
    4  C
  C  H
    1 1      0.00000000      0.00000000      0.00000000
    2 2     -0.44385881     -0.88731306     -0.44385881
    3 2      0.88731306      0.44385881     -0.44385881
    4 2     -0.44385881      0.44385881      0.88731306
}

Driver = {}

Hamiltonian = DFTB {
  SCC = Yes
  ShellResolvedSCC = No
  SCCTolerance = 1.0E-10
  MaxSCCIterations = 100
  Mixer = Broyden {}
  MaxAngularMomentum = {
    C = "p"
    H = "s"
  }
  Charge = 0.0
  SpinPolarisation = Colinear {
    UnpairedElectrons = 1
  }
  SpinConstants = { # From C. Koehler thesis
    C = {
        -0.031 -0.025
        -0.025 -0.023
    }
    H = {-0.072}
    ShellResolvedSpin = Yes
  }
  Filling = Fermi {
    Temperature [Kelvin] = 10
  }
  SlaterKosterFiles = Type2FileNames {
    Separator = "-"
    Suffix = ".skf"
  }
  OrbitalPotential = {
   Functional = {FLL}
   C = {
     Shells = {1 2} # sp block on the C
     UJ = 0.178371875 # shell weighted average of 0.5*((Us-Wss)+3(Upp-Wpp))/(4)
   }
  }
}

ElectronDynamics = {
    Steps = 20000
    TimeStep [au] = 0.2
    Perturbation = Kick {
        PolarizationDirection = "all"
        Spintype = Singlet
    }
    FieldStrength [v/a] = 0.001
}

Analysis = {
    MullikenAnalysis = Yes
    CalculateForces = Yes
    AtomResolvedEnergies = Yes
}

Options = {
  WriteAutotestTag = Yes
}

InputVersion = 20.1

Parallel {
  # Allow OMP threads explicitely to test for hybrid parallelisation with
  # MPI-binary. (Check the manual before using this in production runs!)
  UseOmpThreads = Yes
}
