Geometry = GenFormat {
3  C
 O H
     1    1    0.00000000000E+00  -0.10000000000E+01   0.00000000000E+00
     2    2    0.00000000000E+00   0.00000000000E+00   0.78306400000E+00
     3    2    0.00000000000E+00   0.00000000000E+00  -0.78306400000E+00
}

Driver = SteepestDescent {
  StepSize = 100.0
  MaxForceComponent = 1.0E-04
  MaxSteps = 30
}

Hamiltonian = DFTB {

  SCC = Yes
  SCCTolerance = 1.0E-010
  MaxSCCIterations = 100

  MaxAngularMomentum = {
    O = "p"
    H = "s"
  }

  Filling = Fermi {
    Temperature [Kelvin] = 0.0
  }

  SlaterKosterFiles = Type2FileNames {
    Prefix = "slakos/origin/mio-1-1/"
    Separator = "-"
    Suffix = ".skf"
  }

}

Options = {
  WriteAutotestTag = Yes
}

ParserOptions = {
  ParserVersion = 13
}

Parallel {
  # Allow OMP threads explicitely to test for hybrid parallelisation with
  # MPI-binary. (Check the manual before using this in production runs!)
  UseOmpThreads = Yes
}
