 Geometry = GenFormat {
  26 S
  C H
     1   1   5.0000000000E+00   5.0000000000E+00   2.8417200000E+00
     2   1   5.0000000000E+00   6.2305010000E+00   3.5521500000E+00
     3   1   5.0000000000E+00   5.0000000000E+00   1.4208600000E+00
     4   1   5.0000000000E+00   7.4610020000E+00   2.8417200000E+00
     5   1   5.0000000000E+00   8.6915030000E+00   3.5521500000E+00
     6   1   5.0000000000E+00   6.2305010000E+00   7.1043000000E-01
     7   1   5.0000000000E+00   7.4610020000E+00   1.4208600000E+00
     8   1   5.0000000000E+00   9.9220030000E+00   2.8417200000E+00
     9   1   5.0000000000E+00   1.1152500000E+01   3.5521500000E+00
    10   1   5.0000000000E+00   8.6915030000E+00   7.1043000000E-01
    11   1   5.0000000000E+00   9.9220030000E+00   1.4208600000E+00
    12   1   5.0000000000E+00   1.2383010000E+01   2.8417200000E+00
    13   1   5.0000000000E+00   1.3613510000E+01   3.5521500000E+00
    14   1   5.0000000000E+00   1.1152500000E+01   7.1043000000E-01
    15   1   5.0000000000E+00   1.2383010000E+01   1.4208600000E+00
    16   1   5.0000000000E+00   1.4844010000E+01   2.8417200000E+00
    17   1   5.0000000000E+00   1.6074510000E+01   3.5521500000E+00
    18   1   5.0000000000E+00   1.3613510000E+01   7.1043000000E-01
    19   1   5.0000000000E+00   1.4844010000E+01   1.4208600000E+00
    20   1   5.0000000000E+00   1.7305010000E+01   2.8417200000E+00
    21   1   5.0000000000E+00   1.6074510000E+01   7.1043000000E-01
    22   1   5.0000000000E+00   1.7305010000E+01   1.4208600000E+00
    23   2   5.0000000000E+00   4.0560320000E+00   3.3867200000E+00
    24   2   5.0000000000E+00   4.0560320000E+00   8.7586000000E-01
    25   2   5.0000000000E+00   1.8248980000E+01   3.3867200000E+00
    26   2   5.0000000000E+00   1.8248980000E+01   8.7586000000E-01
  0.0    0.0    0.0
  100.00000000    0.0    0.0
  0.0    200.00000000    0.0
  0.0    0.0    4.26258000
 }
 Hamiltonian = DFTB {
   SCC = Yes 
   SCCTolerance = 1.0e-7
   MaxSCCIterations = 1000
   Mixer = Broyden {
     MixingParameter = 0.051
     InverseJacobiWeight = 0.01
     MinimalWeight = 1.
     MaximalWeight = 100000.
     WeightFactor = 0.01
   }
   SlaterKosterFiles = Type2FileNames {
       Separator = "-"
       Suffix = ".skf"
   }   
   KPointsAndWeights = SupercellFolding {
     1 0 0 
     0 1 0 
     0 0 50
     0.0 0.0 0.5
   }
   MaxAngularMomentum = {
   C = "p"
   H = "s"
   }
   Charge = 0.0
   SpinPolarisation = {}
   Filling = Fermi {
     Temperature [k] = 300 
   }
   ElectricField = {}
   OrbitalResolvedSCC = No
   ReadInitialCharges = No 
   Eigensolver = DivideAndConquer {}
   OldSKInterpolation = No
   Dispersion = LennardJones {
    Parameters = UFFParameters {}
  }
 }
 Options = {
   WriteAutotestTag = Yes 
 }
InputVersion = 20.1
ElectronDynamics = {
  Steps = 1000
  TimeStep [au] = 0.2
  FieldStrength [v/a] = 0.01
  Perturbation = laser {
   PolarizationDirection = 0 1 0
   LaserEnergy [ev] = 3.0
  }
  Populations = Yes 
}
