Geometry = GenFormat {
48 F
 O H 
1 1  -0.00000006   0.00000007  -0.00000006
2 2   0.07900802   0.08247290   0.07900802
3 2  -0.13450645   0.04598281   0.04252985
4 1   0.12499903   0.12499761   0.12499903
5 2   0.04252985   0.04598281  -0.13450646
6 2   0.07901423   0.25950410   0.07901423
7 1  -0.00000006   0.00000007   0.49999994
8 2   0.07900802   0.08247290   0.57900802
9 2  -0.13450645   0.04598281   0.54252985
10 1   0.12499903   0.12499761   0.62499903
11 2   0.04252985   0.04598281   0.36549354
12 2   0.07901423   0.25950410   0.57901423
13 1  -0.00000006   0.50000007  -0.00000006
14 2   0.07900802   0.58247291   0.07900802
15 2  -0.13450645   0.54598281   0.04252985
16 1   0.12499903   0.62499761   0.12499903
17 2   0.04252985   0.54598281  -0.13450646
18 2   0.07901423   0.75950410   0.07901423
19 1  -0.00000006   0.50000007   0.49999994
20 2   0.07900802   0.58247291   0.57900802
21 2  -0.13450645   0.54598281   0.54252985
22 1   0.12499903   0.62499761   0.62499903
23 2   0.04252985   0.54598281   0.36549354
24 2   0.07901423   0.75950410   0.57901423
25 1   0.49999994   0.00000007  -0.00000006
26 2   0.57900802   0.08247290   0.07900802
27 2   0.36549354   0.04598281   0.04252985
28 1   0.62499903   0.12499761   0.12499903
29 2   0.54252985   0.04598281  -0.13450646
30 2   0.57901423   0.25950410   0.07901423
31 1   0.49999994   0.00000007   0.49999994
32 2   0.57900802   0.08247290   0.57900802
33 2   0.36549354   0.04598281   0.54252985
34 1   0.62499903   0.12499761   0.62499903
35 2   0.54252985   0.04598281   0.36549354
36 2   0.57901423   0.25950410   0.57901423
37 1   0.49999994   0.50000007  -0.00000006
38 2   0.57900802   0.58247291   0.07900802
39 2   0.36549354   0.54598281   0.04252985
40 1   0.62499903   0.62499761   0.12499903
41 2   0.54252985   0.54598281  -0.13450646
42 2   0.57901423   0.75950410   0.07901423
43 1   0.49999994   0.50000007   0.49999994
44 2   0.57900802   0.58247291   0.57900802
45 2   0.36549354   0.54598281   0.54252985
46 1   0.62499903   0.62499761   0.62499903
47 2   0.54252985   0.54598281   0.36549354
48 2   0.57901423   0.75950410   0.57901423
  0.00000000   0.00000000   0.00000000
  6.38161144   6.38161144   0.00000000
  0.00000000   6.38161144   6.38161144
  6.38161144   0.00000000   6.38161144
}

Hamiltonian = DFTB {
  SCC = Yes
  MaxAngularMomentum = {
    O = "p"
    H = "s"
  }
  Eigensolver = NTPoly {}
  SlaterKosterFiles = Type2FileNames {
    Separator = "-"
    Suffix = ".skf"
  }
  KPointsAndWeights = SupercellFolding {
   1 0 0
   0 1 0
   0 0 1
   0.0 0.0 0.0
  }
}

Options = {
  WriteAutotestTag = Yes
}

ParserOptions = {
  ParserVersion = 6
}

Parallel {
  # Allow OMP threads explicitely to test for hybrid parallelisation with
  # MPI-binary. (Check the manual before using this in production runs!)
  UseOmpThreads = No
}
