 Geometry = GenFormat {
40 C
C N O H
     1   1  -4.2129600000E+00   3.9893800000E+00   0.0000000000E+00
     2   1  -2.7358400000E+00   3.9997000000E+00   0.0000000000E+00
     3   1  -1.9504600000E+00   2.7901800000E+00   0.0000000000E+00
     4   1  -2.6865100000E+00   1.5500100000E+00   0.0000000000E+00
     5   1  -4.1628400000E+00   1.5008500000E+00   0.0000000000E+00
     6   1  -1.8848300000E+00   5.0984500000E+00   0.0000000000E+00
     7   1  -6.1931000000E-01   5.1842500000E+00   0.0000000000E+00
     8   1   2.3378000000E-01   4.0646400000E+00   0.0000000000E+00
     9   1  -4.9711000000E-01   2.8194500000E+00   0.0000000000E+00
    10   1  -1.7919400000E+00   4.8642000000E-01   0.0000000000E+00
    11   1  -5.2399000000E-01   4.5165000000E-01   0.0000000000E+00
    12   1   2.8333000000E-01   1.6046900000E+00   0.0000000000E+00
    13   1   1.6721700000E+00   4.0936200000E+00   0.0000000000E+00
    14   1   2.4526100000E+00   2.8788600000E+00   0.0000000000E+00
    15   1   1.7217200000E+00   1.6336600000E+00   0.0000000000E+00
    16   1   2.4794800000E+00   5.2466700000E+00   0.0000000000E+00
    17   1   3.7474200000E+00   5.2119000000E+00   0.0000000000E+00
    18   1   4.6420000000E+00   4.1483100000E+00   0.0000000000E+00
    19   1   3.9059600000E+00   2.9081400000E+00   0.0000000000E+00
    20   1   4.6913500000E+00   1.6986200000E+00   0.0000000000E+00
    21   1   3.8403300000E+00   5.9987000000E-01   0.0000000000E+00
    22   1   2.5748200000E+00   5.1407000000E-01   0.0000000000E+00
    23   1   6.1183300000E+00   4.1974800000E+00   0.0000000000E+00
    24   1   6.1684700000E+00   1.7089600000E+00   0.0000000000E+00
    25   2  -4.8232300000E+00   2.7323200000E+00   0.0000000000E+00
    26   2   6.7787300000E+00   2.9660200000E+00   0.0000000000E+00
    27   3  -4.8992500000E+00   5.0053300000E+00   0.0000000000E+00
    28   3  -4.8076800000E+00   4.5810000000E-01   0.0000000000E+00
    29   3   6.7631500000E+00   5.2402500000E+00   0.0000000000E+00
    30   3   6.8547700000E+00   6.9301000000E-01   0.0000000000E+00
    31   4   7.8108900000E+00   2.9868100000E+00   0.0000000000E+00
    32   4  -5.8554000000E+00   2.7115400000E+00   0.0000000000E+00
    33   4  -2.3702700000E+00   6.0091500000E+00   0.0000000000E+00
    34   4  -1.9286000000E-01   6.1240100000E+00   0.0000000000E+00
    35   4  -2.2403200000E+00  -4.4309000000E-01   0.0000000000E+00
    36   4  -6.0050000000E-02  -4.7019000000E-01   0.0000000000E+00
    37   4   2.0155300000E+00   6.1685000000E+00   0.0000000000E+00
    38   4   4.1958000000E+00   6.1414100000E+00   0.0000000000E+00
    39   4   4.3257800000E+00  -3.1083000000E-01   0.0000000000E+00
    40   4   2.1483700000E+00  -4.2570000000E-01   0.0000000000E+00
 }
Hamiltonian = DFTB {
  SCC = Yes
  SCCTolerance = 1.0E-10 # abnormally tight tollerance used for accuracy
  SlaterKosterFiles = Type2FileNames {
       Separator = "-"
       Suffix = ".skf"
   }   
   MaxAngularMomentum = {
   C = "p"
   H = "s"
   O = "p"
   N = "p"
   }
   Charge = -1.0
   SpinPolarisation = {}
   Filling = Fermi {
     Temperature [k] = 273.15 
   }
 }
 Options = {
   WriteAutotestTag = Yes 
 }
InputVersion = 20.1
 ElectronDynamics = {
   Steps = 2000
   TimeStep [au] = 0.2
   FieldStrength [v/a] = 0.001
   Perturbation = kick {
    PolarizationDirection = "x"
   }
 }
