Geometry = GenFormat {
  <<< geo.gen
}

Atoms = O

DisplayModes {
  Animate = Yes
  PlotModes = 9:11
}

SlaterKosterFiles = Type2FileNames {
  Prefix = "slakos/origin/mio-1-1/"
  Separator = "-"
  Suffix = ".skf"
}

Hessian = {
  <<< "hessian.out.O"
}

InputVersion = 3
