Geometry = GenFormat {
2  S
 Ga As
     1    1    0.00000000000E+00   0.00000000000E+00   0.00000000000E+00
     2    2    0.13567730000E+01   0.13567730000E+01   0.13567730000E+01
   0.00000000000E+00   0.00000000000E+00   0.00000000000E+00
   0.27135460000E+01   0.27135460000E+01   0.00000000000E+00
   0.00000000000E+00   0.27135460000E+01   0.27135460000E+01
   0.27135460000E+01   0.00000000000E+00   0.27135460000E+01
}

Driver = {}

Hamiltonian = DFTB {
  SCC = Yes
  SCCTolerance = 1.000000000000000E-007  # Very small!
  MaxSCCIterations = 1000
  Mixer = Anderson {
    MixingParameter = 5.000000000000000E-002
  }
  MaxAngularMomentum = {
    Ga = SelectedShells {"sp" "d" }
    As = "p"
  }
  SlaterKosterFiles = {
    Ga-Ga = "./Ga1-Ga1.skf" "./Ga1-Ga2.skf" "./Ga2-Ga1.skf" "./Ga2-Ga2.skf"
    Ga-As = "./Ga1-As.skf"  "./Ga2-As.skf"
    As-Ga = "./As-Ga1.skf" "./As-Ga2.skf"
    As-As = "./As-As.skf"
  }
  Charge = 0.000000000000000E+000
  SpinPolarisation = Colinear {
    UnpairedElectrons = 0.200000000000000
  }
  SpinConstants = {  # Those are dummy spin constants, never use them!
    Ga = {
 -4.100000000000000E-002 -4.000000000000000E-002 -4.000000000000000E-002
 -4.000000000000000E-002 -4.200000000000000E-002 -4.200000000000000E-002
 -4.000000000000000E-002 -4.200000000000000E-002 -5.300000000000000E-002
    }
    As = {
 -5.000000000000000E-002 -2.800000000000000E-002
 -2.800000000000000E-002 -3.000000000000000E-002
    }
  }
  Filling = Fermi {
    Temperature [Kelvin] = 1.000000000000000E-006
  }

  KPointsAndWeights = {
 0.125000000000000 0.125000000000000 0.125000000000000 2.00000000000000
 0.125000000000000 0.125000000000000 0.375000000000000 2.00000000000000
 0.125000000000000 0.125000000000000 0.625000000000000 2.00000000000000
 0.125000000000000 0.125000000000000 0.875000000000000 2.00000000000000
 0.125000000000000 0.375000000000000 0.125000000000000 2.00000000000000
 0.125000000000000 0.375000000000000 0.375000000000000 2.00000000000000
 0.125000000000000 0.375000000000000 0.625000000000000 2.00000000000000
 0.125000000000000 0.375000000000000 0.875000000000000 2.00000000000000
 0.125000000000000 0.625000000000000 0.125000000000000 2.00000000000000
 0.125000000000000 0.625000000000000 0.375000000000000 2.00000000000000
 0.125000000000000 0.625000000000000 0.625000000000000 2.00000000000000
 0.125000000000000 0.625000000000000 0.875000000000000 2.00000000000000
 0.125000000000000 0.875000000000000 0.125000000000000 2.00000000000000
 0.125000000000000 0.875000000000000 0.375000000000000 2.00000000000000
 0.125000000000000 0.875000000000000 0.625000000000000 2.00000000000000
 0.125000000000000 0.875000000000000 0.875000000000000 2.00000000000000
 0.375000000000000 0.125000000000000 0.125000000000000 2.00000000000000
 0.375000000000000 0.125000000000000 0.375000000000000 2.00000000000000
 0.375000000000000 0.125000000000000 0.625000000000000 2.00000000000000
 0.375000000000000 0.125000000000000 0.875000000000000 2.00000000000000
 0.375000000000000 0.375000000000000 0.125000000000000 2.00000000000000
 0.375000000000000 0.375000000000000 0.375000000000000 2.00000000000000
 0.375000000000000 0.375000000000000 0.625000000000000 2.00000000000000
 0.375000000000000 0.375000000000000 0.875000000000000 2.00000000000000
 0.375000000000000 0.625000000000000 0.125000000000000 2.00000000000000
 0.375000000000000 0.625000000000000 0.375000000000000 2.00000000000000
 0.375000000000000 0.625000000000000 0.625000000000000 2.00000000000000
 0.375000000000000 0.625000000000000 0.875000000000000 2.00000000000000
 0.375000000000000 0.875000000000000 0.125000000000000 2.00000000000000
 0.375000000000000 0.875000000000000 0.375000000000000 2.00000000000000
 0.375000000000000 0.875000000000000 0.625000000000000 2.00000000000000
 0.375000000000000 0.875000000000000 0.875000000000000 2.00000000000000
  }
}

Options = {
  WriteAutotestTag = Yes
  CalculateForces = Yes
}

ParserOptions = {
  ParserVersion = 3
}

Parallel {
  # Allow OMP threads explicitely to test for hybrid parallelisation with
  # MPI-binary. (Check the manual before using this in production runs!)
  UseOmpThreads = Yes
}

