Geometry = GenFormat {
3  C
 O H
     1    1    0.00000000000E+00  -0.10000000000E+01   0.00000000000E+00
     2    2    0.00000000000E+00   0.00000000000E+00   0.78306400000E+00
     3    2    0.00000000000E+00   0.00000000000E+00  -0.78306400000E+00
}

Driver = ConjugateGradient {
  MovedAtoms = 1:3
  MaxForceComponent = 1.0E-008  # Extremely small!
  MaxSteps = 100
  Constraints = {
 2 0.000000000000000E+000 0.000000000000000E+000 1.00000000000000
 3 0.000000000000000E+000 0.000000000000000E+000 1.00000000000000
  }
}

Hamiltonian = DFTB {
  SCC = Yes
  SCCTolerance = 1.0E-010    # Extremely small!
  MaxSCCIterations = 1000
  Mixer = Anderson {
    MixingParameter = 0.05
    Generations = 8
  }
  MaxAngularMomentum = {
    O = "p"
    H = "s"
  }
  Eigensolver = Standard {}  # slow
  Filling = Fermi {
    Temperature [Kelvin] = 1.000000000000000E-008
  }

  SlaterKosterFiles = {
    O-O = "O-O.skf"
    O-H = "O-H.skf"
    H-O = "O-H.skf"
    H-H = "H-H.skf"
  }
}

Options = {
  WriteAutotestTag = Yes
}

ParserOptions = {
  ParserVersion = 4
}

Parallel {
  # Allow OMP threads explicitely to test for hybrid parallelisation with
  # MPI-binary. (Check the manual before using this in production runs!)
  UseOmpThreads = Yes
}

