Geometry = GenFormat {
5 C
O H
     1   1    5.7273582030305707E+00    4.6733597196243775E+00   -2.1353482784277773E+00
     2   1    4.7615755706448235E+00    5.6825757619914059E+00   -4.1300235360752691E+00
     3   2    5.2538511378257331E+00    5.1732965650643834E+00   -3.1395301786931609E+00
     4   2    4.9992483445388505E+00    4.1824496305591605E+00   -1.7572912419119255E+00
     5   2    4.6354269820463330E+00    6.5967676156284574E+00   -3.8802052239637237E+00
}

Hamiltonian = DFTB {
  Charge = -1
  SCC = Yes
  SCCTolerance = 1.0E-9
  MaxSCCIterations = 300
  Filling = Fermi {
    Temperature = 0.0
  }
  Mixer = Broyden {}
  MaxAngularMomentum = {
    H = "s"
    O = "p"
  }

  ThirdOrderFull = Yes
  HubbardDerivs = {
    H = -0.1857
    O = -0.1575
  }

  Mdftb = OneCenterApproximation {
    AtomDIntegralScalings = {
      H = 0.0
      O = 0.2
    }
    AtomQIntegralScalings = {
      H = 0.0
      O = 3.0
    }
    OneCenterAtomIntegrals = {
      H:S|XX|S   = 0.55976
      O:S|X|Px   = 0.60894
      O:S|XX|S   = 0.45215
      O:Px|XX|Px = 0.83893
      O:Py|XX|Py = 0.27964
    }
  }

  SlaterKosterFiles = Type2Filenames {
    Prefix = {slakos/origin/m3ob-test/}
    Suffix = ".skf"
    Separator = "-"
  }
}

ParserOptions = {
  ParserVersion = 14
  IgnoreUnprocessedNodes = No
}

Analysis = {
  PrintForces = Yes
}

Options = {
  WriteAutotestTag = Yes
  WriteResultsTag = Yes
}

Parallel{
  Blacs{BlockSize=2}
  # Allow OMP threads explicitely to test for hybrid parallelisation with
  # MPI-binary. (Check the manual before using this in production runs!)
  UseOmpThreads = Yes
}
