Geometry = GenFormat {
    <<< "geo.gen"
}

Driver = {}
Hamiltonian = DFTB {
    SCC = Yes
    SCCTolerance = 1e-10
    MaxAngularMomentum = {
        O = "p"
        C = "p"
        H = "s"
    }
    SlaterKosterFiles = Type2FileNames {
        Prefix = "/home/niehaus/Slater-Koster/mio-1-1/"
        Separator = "-"
        Suffix = ".skf"
    }
}
ExcitedState {
    Casida {
        NrOfExcitations = 10
        Symmetry = Singlet
        Diagonaliser = Stratmann{}
        StateCouplings = {0 4}
    }
}


Options {
    WriteAutotestTag = Yes
}

ParserOptions {
    ParserVersion = 13
}            



