Geometry = GenFormat {
    3  C
    O H
    1    1    0.00000000000E+00  -0.10000000000E+01   0.00000000000E+00
    2    2    0.00000000000E+00   0.00000000000E+00   0.78306400000E+00
    3    2    0.00000000000E+00   0.00000000000E+00  -0.78306400000E+00
}

Driver {}

Hamiltonian = DFTB {
    SCC = Yes
    SCCTolerance = 1.0E-10
    MaxAngularMomentum {
        O = "p"
        H = "s"
    }
    Filling = Fermi {
        Temperature [Kelvin] = 1.0E-8
    }
    SlaterKosterFiles = Type2FileNames {
        Prefix = "slakos/origin/mio-1-1/"
        Separator = "-"
        Suffix  = ".skf"
    }
    ElectricField {
        PointCharges {
            CoordsAndCharges {
                3.0 -0.1 -0.1 1.0
            }
        }
        PointCharges {
            GaussianBlurWidth [AA] = 1.0
            CoordsAndCharges {
                -3.0 0.1 0.1 -1.0
            }
        }
    }
}

ParserOptions {
    ParserVersion = 14
}

Parallel {
    # Allow OMP threads explicitely to test for hybrid parallelisation with
    # MPI-binary. (Check the manual before using this in production runs!)
    UseOmpThreads = Yes
}
