Geometry = GenFormat {
    <<< "butadiene.gen"
}

Driver = {}

Hamiltonian = DFTB {
    SCC = Yes
    SCCTolerance = 1e-10  # Very tight for test purposes only
    MaxAngularMomentum = {
        C = "p"
        H = "s"
    }
    SlaterKosterFiles = Type2FileNames {
        Prefix = {slakos/origin/ob2-1-1/shift/}
        Separator = "-"
        Suffix = ".skf"
    }
     RangeSeparated = LC {
         Screening = MatrixBased {}
     }
     SpinPolarisation = Colinear{}
     SpinConstants = {
  ShellResolvedSpin = Yes
  # Calculated for LC
  H = {
    # Wss
    -0.17888
  }
  C = {
    # Wss Wsp Wps Wpp
    -0.14143 -0.02924 -0.02924 -0.05740
  }
 }
}


Options {
    WriteAutotestTag = Yes
}

 ElectronDynamics = {
     Steps = 10000
     TimeStep [au] = 0.2
     Perturbation = Kick {
         PolarizationDirection = "x"
	 SpinType = singlet
     }
     FieldStrength [v/a] = 0.001
     WriteEnergyAndCharges = Yes
 }


InputVersion = 21.2


Parallel {
  # Allow OMP threads explicitely to test for hybrid parallelisation with
  # MPI-binary. (Check the manual before using this in production runs!)
  UseOmpThreads = Yes
}

