Geometry = GenFormat {
    3  C
    O H
    1    1    0.00000000000  -1.00000000000   0.00000000000
    2    2    0.00000000000   0.00000000000   0.78306400000
    3    2    0.00000000000   0.00000000000  -0.78306400000
}

Driver = {}

Hamiltonian = DFTB {
  SCC = Yes
  SCCTolerance = 1.0E-10
  MaxAngularMomentum = {
    H = "s"
    O = "p"
  }
  SlaterKosterFiles = Type2FileNames {
    Prefix = "slakos/origin/mio-1-1/"
    Separator = "-"
    Suffix = ".skf"
  }
}

Options = {
  WriteAutotestTag = Yes
}

Analysis = {
  MullikenAnalysis = Yes
  WriteBondPopulation = Yes
  WriteBondEnergy = Yes
  WriteBondOrder = Yes
}

ParserOptions = {
  ParserVersion = 14
}
