Geometry =  GenFormat {
  10  C
   C O H
   1   1   -0.35558499      -0.02488570       0.00000000
   2   1    1.23221770      -0.12583614       0.00000000
   3   2    1.84848989       0.99950130       0.00000000
   4   2    1.73109029      -1.28271371       0.00000000
   5   3   -0.82919160      -1.01589116       0.00000000
   6   3   -0.71514434       0.52034147       0.88471618
   7   3   -0.71514434       0.52034147      -0.88471618
   8   3    3.56936195       0.99350073       0.00000000
   9   2    4.49939028       1.37950023       0.00000000
  10   3    4.33451514       2.33614152       0.00000000
}

Driver = {}
    
Hamiltonian = DFTB {
  SCC = Yes
  SCCTolerance = 1.00E-6
  MaxAngularMomentum {
    H = "s"
    O = "p"
    C = "p"
  }
  SlaterKosterFiles = Type2FileNames {
    Separator = "-"
    Suffix  = ".skf"
  }
  ThirdOrder = Yes
  HubbardDerivs {
    O = -0.14
    H = -0.07
    C = -0.04
  }
  Charge = -1
  DampXH = Yes
  DampXHExponent = 4.95
}

Options = {
  WriteAutotestTag = Yes
  CalculateForces = Yes
}

ParserOptions = {
  ParserVersion = 3
}

Parallel {
  # Allow OMP threads explicitely to test for hybrid parallelisation with
  # MPI-binary. (Check the manual before using this in production runs!)
  UseOmpThreads = Yes
}

