Geometry = GenFormat {
172 C
C
1   1   -24.267882594   -16.109200794   9.9352641109e-017
2   1   -24.26781072   -18.580717564   9.9352641109e-017
3   1   -23.554453094   -14.87342166   9.9352641109e-017
4   1   -23.554381221   -17.344938431   9.9352641109e-017
5   1   -23.554309347   -19.816455201   9.9352641109e-017
6   1   -22.127522221   -14.873380164   9.9352641109e-017
7   1   -22.127450348   -17.344896935   9.9352641109e-017
8   1   -22.127378475   -19.816413705   9.9352641109e-017
9   1   -21.414020848   -16.109117801   9.9352641109e-017
10   1   -21.413948975   -18.580634572   9.9352641109e-017
11   1   -19.987089975   -16.109076305   9.9352641109e-017
12   1   -19.987018102   -18.580593076   9.9352641109e-017
13   1   -19.273660476   -14.873297172   9.9352641109e-017
14   1   -19.273588602   -17.344813943   9.9352641109e-017
15   1   -19.273516729   -19.816330713   9.9352641109e-017
16   1   -17.847017096   -4.9871885936   9.9352641109e-017
17   1   -17.846945223   -7.4587053642   9.9352641109e-017
18   1   -17.84687335   -9.9302221347   9.9352641109e-017
19   1   -17.846801476   -12.401738905   9.9352641109e-017
20   1   -17.846729603   -14.873255676   9.9352641109e-017
21   1   -17.84665773   -17.344772446   9.9352641109e-017
22   1   -17.846585856   -19.816289217   9.9352641109e-017
23   1   -17.133587597   -3.7514094603   9.9352641109e-017
24   1   -17.133515723   -6.2229262308   9.9352641109e-017
25   1   -17.13344385   -8.6944430014   9.9352641109e-017
26   1   -17.133371977   -11.165959772   9.9352641109e-017
27   1   -17.133300103   -13.637476543   9.9352641109e-017
28   1   -17.13322823   -16.108993313   9.9352641109e-017
29   1   -17.133156356   -18.580510084   9.9352641109e-017
30   1   -15.706656724   -3.7513679642   9.9352641109e-017
31   1   -15.70658485   -6.2228847348   9.9352641109e-017
32   1   -15.706512977   -8.6944015053   9.9352641109e-017
33   1   -15.706441104   -11.165918276   9.9352641109e-017
34   1   -15.70636923   -13.637435046   9.9352641109e-017
35   1   -15.706297357   -16.108951817   9.9352641109e-017
36   1   -15.706225484   -18.580468588   9.9352641109e-017
37   1   -14.993155351   -4.9871056014   9.9352641109e-017
38   1   -14.993083477   -7.458622372   9.9352641109e-017
39   1   -14.993011604   -9.9301391426   9.9352641109e-017
40   1   -14.992939731   -12.401655913   9.9352641109e-017
41   1   -14.992867857   -14.873172684   9.9352641109e-017
42   1   -14.992795984   -17.344689454   9.9352641109e-017
43   1   -14.992724111   -19.816206225   9.9352641109e-017
44   1   -13.565936985   -14.873131188   9.9352641109e-017
45   1   -13.565865111   -17.344647958   9.9352641109e-017
46   1   -13.565793238   -19.816164729   9.9352641109e-017
47   1   -12.852435611   -16.108868825   9.9352641109e-017
48   1   -12.852363738   -18.580385595   9.9352641109e-017
49   1   -11.425504739   -16.108827329   9.9352641109e-017
50   1   -11.425432865   -18.580344099   9.9352641109e-017
51   1   -10.712075239   -14.873048195   9.9352641109e-017
52   1   -10.712003366   -17.344564966   9.9352641109e-017
53   1   -10.711931492   -19.816081737   9.9352641109e-017
54   1   -9.2851443662   -14.873006699   9.9352641109e-017
55   1   -9.2850724928   -17.34452347   9.9352641109e-017
56   1   -9.2850006195   -19.81604024   9.9352641109e-017
57   1   -8.5716429931   -16.108744337   9.9352641109e-017
58   1   -8.5715711198   -18.580261107   9.9352641109e-017
59   1   -7.1447121203   -16.10870284   9.9352641109e-017
60   1   -7.144640247   -18.580219611   9.9352641109e-017
61   1   -6.4312826206   -14.872923707   9.9352641109e-017
62   1   -6.4312107472   -17.344440478   9.9352641109e-017
63   1   -6.4311388739   -19.815957248   9.9352641109e-017
64   1   -5.0043517478   -14.872882211   9.9352641109e-017
65   1   -5.0042798745   -17.344398982   9.9352641109e-017
66   1   -5.0042080011   -19.815915752   9.9352641109e-017
67   1   -4.2908503747   -16.108619848   9.9352641109e-017
68   1   -4.2907785014   -18.580136619   9.9352641109e-017
69   1   -2.8639195019   -16.108578352   9.9352641109e-017
70   1   -2.8638476286   -18.580095123   9.9352641109e-017
71   1   -2.1504900022   -14.872799219   9.9352641109e-017
72   1   -2.1504181289   -17.344315989   9.9352641109e-017
73   1   -2.1503462555   -19.81583276   9.9352641109e-017
74   1   -0.72355912942   -14.872757723   9.9352641109e-017
75   1   -0.72348725608   -17.344274493   9.9352641109e-017
76   1   -0.72341538274   -19.815791264   9.9352641109e-017
77   1   -0.010057756358   -16.10849536   9.9352641109e-017
78   1   -0.0099858830189   -18.580012131   9.9352641109e-017
79   1   1.4168731164   -16.108578352   9.9352641109e-017
80   1   1.4169449898   -18.580095123   9.9352641109e-017
81   1   2.1303026162   -14.872799219   9.9352641109e-017
82   1   2.1303744895   -17.344315989   9.9352641109e-017
83   1   2.1304463628   -19.81583276   9.9352641109e-017
84   1   3.5572334889   -14.872757723   9.9352641109e-017
85   1   3.5573053623   -17.344274493   9.9352641109e-017
86   1   3.5573772356   -19.815791264   9.9352641109e-017
87   1   4.270734862   -16.10849536   9.9352641109e-017
88   1   4.2708067353   -18.580012131   9.9352641109e-017
89   1   5.6976657348   -16.108578352   9.9352641109e-017
90   1   5.6977376081   -18.580095123   9.9352641109e-017
91   1   6.4110952345   -14.872799219   9.9352641109e-017
92   1   6.4111671079   -17.344315989   9.9352641109e-017
93   1   6.4112389812   -19.81583276   9.9352641109e-017
94   1   7.8380261073   -14.872757723   9.9352641109e-017
95   1   7.8380979807   -17.344274493   9.9352641109e-017
96   1   7.838169854   -19.815791264   9.9352641109e-017
97   1   8.5515274804   -16.10849536   9.9352641109e-017
98   1   8.5515993537   -18.580012131   9.9352641109e-017
99   1   9.9784583532   -16.108578352   9.9352641109e-017
100   1   9.9785302265   -18.580095123   9.9352641109e-017
101   1   10.691887853   -14.872799219   9.9352641109e-017
102   1   10.691959726   -17.344315989   9.9352641109e-017
103   1   10.6920316   -19.81583276   9.9352641109e-017
104   1   12.118818726   -14.872757723   9.9352641109e-017
105   1   12.118890599   -17.344274493   9.9352641109e-017
106   1   12.118962472   -19.815791264   9.9352641109e-017
107   1   12.832320099   -16.10849536   9.9352641109e-017
108   1   12.832391972   -18.580012131   9.9352641109e-017
109   1   -17.84708897   -2.5156718231   9.9352641109e-017
110   1   -14.993227224   -2.5155888309   9.9352641109e-017
111   1   -17.13365947   -1.2798926897   9.9352641109e-017
112   1   -15.706728597   -1.2798511936   9.9352641109e-017
113   1   -17.84708897   -0.044155052492   9.9352641109e-017
114   1   -14.993227224   -0.04407206031   9.9352641109e-017
115   1   -17.13365947   1.1916240808   9.9352641109e-017
116   1   -15.706728597   1.1916655769   9.9352641109e-017
117   1   -17.84708897   2.4273617181   9.9352641109e-017
118   1   -14.993227224   2.4274447103   9.9352641109e-017
119   1   -17.13365947   3.6631408514   9.9352641109e-017
120   1   -15.706728597   3.6631823475   9.9352641109e-017
121   1   -17.84708897   4.8988784886   9.9352641109e-017
122   1   -14.993227224   4.8989614808   9.9352641109e-017
123   1   -17.13365947   6.134657622   9.9352641109e-017
124   1   -15.706728597   6.134699118   9.9352641109e-017
125   1   -17.84708897   7.3703952592   9.9352641109e-017
126   1   -14.993227224   7.3704782514   9.9352641109e-017
127   1   -17.13365947   8.6061743925   9.9352641109e-017
128   1   -15.706728597   8.6062158886   9.9352641109e-017
129   1   -17.84708897   9.8419120297   9.9352641109e-017
130   1   -14.993227224   9.8419950219   9.9352641109e-017
131   1   -17.13365947   11.077691163   9.9352641109e-017
132   1   -15.706728597   11.077732659   9.9352641109e-017
133   1   -25.694741593   -18.58075906   9.9352641109e-017
134   1   -25.694813467   -16.10924229   9.9352641109e-017
135   1   -26.408171093   -19.816538194   9.9352641109e-017
136   1   -26.408242966   -17.345021423   9.9352641109e-017
137   1   -26.40831484   -14.873504652   9.9352641109e-017
138   1   -27.835101966   -19.81657969   9.9352641109e-017
139   1   -27.835173839   -17.345062919   9.9352641109e-017
140   1   -27.835245712   -14.873546148   9.9352641109e-017
141   1   -28.548603339   -18.580842052   9.9352641109e-017
142   1   -28.548675212   -16.109325282   9.9352641109e-017
143   1   -29.975534212   -18.58075906   9.9352641109e-017
144   1   -29.975606085   -16.10924229   9.9352641109e-017
145   1   -30.688963711   -19.816538194   9.9352641109e-017
146   1   -30.689035585   -17.345021423   9.9352641109e-017
147   1   -30.689107458   -14.873504652   9.9352641109e-017
148   1   -32.115894584   -19.81657969   9.9352641109e-017
149   1   -32.115966457   -17.345062919   9.9352641109e-017
150   1   -32.116038331   -14.873546148   9.9352641109e-017
151   1   -32.829395957   -18.580842052   9.9352641109e-017
152   1   -32.829467831   -16.109325282   9.9352641109e-017
153   1   -34.25632683   -18.58075906   9.9352641109e-017
154   1   -34.256398703   -16.10924229   9.9352641109e-017
155   1   -34.96975633   -19.816538194   9.9352641109e-017
156   1   -34.969828203   -17.345021423   9.9352641109e-017
157   1   -34.969900076   -14.873504652   9.9352641109e-017
158   1   -36.396687202   -19.81657969   9.9352641109e-017
159   1   -36.396759076   -17.345062919   9.9352641109e-017
160   1   -36.396830949   -14.873546148   9.9352641109e-017
161   1   -37.110188576   -18.580842052   9.9352641109e-017
162   1   -37.110260449   -16.109325282   9.9352641109e-017
163   1   -38.537119448   -18.58075906   9.9352641109e-017
164   1   -38.537191322   -16.10924229   9.9352641109e-017
165   1   -39.250548948   -19.816538194   9.9352641109e-017
166   1   -39.250620821   -17.345021423   9.9352641109e-017
167   1   -39.250692695   -14.873504652   9.9352641109e-017
168   1   -40.677479821   -19.81657969   9.9352641109e-017
169   1   -40.677551694   -17.345062919   9.9352641109e-017
170   1   -40.677623568   -14.873546148   9.9352641109e-017
171   1   -41.390981194   -18.580842052   9.9352641109e-017
172   1   -41.391053067   -16.109325282   9.9352641109e-017
}
Transport = {
    Device = {
    AtomRange = {1 68}
    FirstLayerAtoms = {1 16 49}
    }
    Contact = {
      Id = "drain"
      AtomRange = {69 108}
      PLShiftTolerance = 1.000000000000000E-008
      FermiLevel = -0.220836613440231
      potential = 0.0
    }
    Contact = {
      Id = "extra"
      AtomRange = {109 132 }
      PLShiftTolerance = 1.000000000000000E-008
      FermiLevel = -0.241593366923318
      potential = 0.0
    }
    Contact = {
      Id = "source"
      AtomRange = {133 172}
      PLShiftTolerance = 1.000000000000000E-008
      FermiLevel = -0.220836613440231
      potential = 0.0
    }
}
Driver = {}
Hamiltonian = DFTB {
  SCC = Yes
  SCCTolerance = 1e-005
  MaxSCCIterations = 50
  MaxAngularMomentum = {
    C = "p"
  }
  Eigensolver = GreensFunction {
    ContourPoints = {20 20}
    LowestEnergy = -0.872278292197885
    FermiCutoff = 10
    EnclosedPoles = 3
    Verbosity = 51
    Delta = 1.000000000000000E-005
    SaveSurfaceGFs = Yes
    ReadSurfaceGFs = No
    RealAxisPoints = 20
    LocalCurrents = No
  }
  Filling = Fermi {
    Temperature = 1.000000000000000E-008
  }
  SlaterKosterFiles = {
    C-C = "./C-C.skf"
  }
  Mixer = Broyden {
    MixingParameter = 0.2
    InverseJacobiWeight = 0.01
    MinimalWeight = 1
    MaximalWeight = 100000
    WeightFactor = 0.01
  }

  Electrostatics = Poisson {
    PoissonBox = { 120.070732670520 101.169693332753 66.1404096002623 }
    MinimalGrid = { 0.944862994289462 0.944862994289462 0.944862994289462 }
    SavePotential = Yes
    BuildBulkPotential = Yes
    ReadOldBulkPotential = No
    BoundaryRegion = Global {}
    PoissonAccuracy = 1e-7
    AtomDensityTolerance = 1e-005
    CutoffCheck = Yes
    Verbosity = 51
    RecomputeAfterDensity = No
    MaxPoissonIterations = 60
    OverrideBulkBC = none {}
    Gate = none {}
  }

  ElectricField = {}
  OrbitalResolvedSCC = No
  ReadInitialCharges = Yes 
  SpinPolarisation = {}
  Charge = 0
  OldSKInterpolation = No
  Dispersion = {}
  PolynomialRepulsive = {}
}
  
Analysis {
  TunnelingAndDOS{
    Verbosity = 51
    EnergyRange = { -0.367400E+000 0.36740000E+000 }
    EnergyStep = 0.0074240000000000E+000
    TerminalCurrents = {
       EmitterCollector = {"extra" "source"}
       EmitterCollector = {"drain" "source"}
    }
    Delta = 1.000000000000000E-005
    #DumpHS = No
    #WriteTunneling = Yes 
  }
  CalculateForces = Yes
}

Options = {
  WriteAutotestTag = Yes
  WriteDetailedOut = Yes
  ReadChargesAsText = Yes
}

Parallel = {
  # Allow OMP threads explicitely to test for hybrid parallelisation with
  # MPI-binary. (Check the manual before using this in production runs!)
  UseOmpThreads = Yes
}

ParserOptions = {
  WriteHSDInput = Yes
  WriteXMLInput = No
  StopAfterParsing = No
  ParserVersion = 6
  IgnoreUnprocessedNodes = No
}
