# Needs the equilibrium geometry, at which the Hessian was been calculated
Geometry = GenFormat {
  <<< geo.gen
}

# Extract atomic masses from SK-files
SlaterKosterFiles = Type2FileNames {
  Prefix = "slakos/origin/mio-1-1/"
  Separator = "-"
  Suffix = ".skf"
}

# Include the Hessian, which was calculated by DFTB+
Hessian = DirectRead {
  File = "hessian.out"
}

# Lock the phase and degenerate eigenvectors for test purposes
PhaseLock = {}

# This file uses the 3rd input format of the modes code
InputVersion = 3
