Geometry = GenFormat {
22  C
 C H
     1    1   -0.74635000000E-01   0.00000000000E+00   0.43400000000E-02
     2    1   -0.12105000000E-01   0.00000000000E+00   0.13496140000E+01
     3    1    0.12329870000E+01   0.00000000000E+00   0.20817270000E+01
     4    1    0.12847110000E+01   0.00000000000E+00   0.34451710000E+01
     5    1    0.25189010000E+01   0.00000000000E+00   0.41782440000E+01
     6    1    0.25689530000E+01   0.00000000000E+00   0.55447560000E+01
     7    1    0.38031410000E+01   0.00000000000E+00   0.62778330000E+01
     8    1    0.38548560000E+01   0.00000000000E+00   0.76412780000E+01
     9    1    0.50999420000E+01   0.00000000000E+00   0.83734000000E+01
    10    1    0.51624590000E+01   0.00000000000E+00   0.97186750000E+01
    11    2    0.29183650000E+01   0.00000000000E+00   0.82202680000E+01
    12    2    0.47419790000E+01   0.00000000000E+00   0.57015810000E+01
    13    2    0.16293860000E+01   0.00000000000E+00   0.61194160000E+01
    14    2    0.34584670000E+01   0.00000000000E+00   0.36035820000E+01
    15    2    0.34587400000E+00   0.00000000000E+00   0.40214270000E+01
    16    2    0.21694750000E+01   0.00000000000E+00   0.15027310000E+01
    17    2   -0.94227900000E+00   0.00000000000E+00   0.19392630000E+01
    18    2    0.83290500000E+00   0.00000000000E+00  -0.60627300000E+00
    19    2   -0.10330820000E+01   0.00000000000E+00  -0.51989700000E+00
    20    2    0.60301230000E+01   0.00000000000E+00   0.77837610000E+01
    21    2    0.42549120000E+01   0.00000000000E+00   0.10329280000E+02
    22    2    0.61209010000E+01   0.00000000000E+00   0.10242924000E+02
}
Driver = {}
Hamiltonian = DFTB {
  SCC = No
  MaxAngularMomentum = {
    C = "p"
    H = "s"
  }
  Charge = 0.000000000000000E+000
  Eigensolver = Standard {}
  Filling = Fermi {
    Temperature [Kelvin] = 100.000000000000
  }
  SlaterKosterFiles = Type2FileNames {
    Separator = "-"
    Suffix = ".skf"
  }
}

Options = {
  MullikenAnalysis = Yes
  CalculateForces = Yes
  WriteAutotestTag = Yes
}

ParserOptions = {
  ParserVersion = 3
}

Parallel {
  # Allow OMP threads explicitely to test for hybrid parallelisation with
  # MPI-binary. (Check the manual before using this in production runs!)
  UseOmpThreads = Yes
}

