Geometry = GenFormat {
    2  F
    Ga As
    1    1    0.00 0.00 0.00
    2    2    0.25 0.25 0.25
    0.0000 0.0000 0.0000
    2.9265 2.9265 0.0000
    2.9265 0.0000 2.9265
    0.0000 2.9265 2.9265
}

Hamiltonian = DFTB {
  SCC = Yes
  SpinOrbit = {
    # constants from G. Klimeck, R.C. Bowen, T.B. Boykin, T.A. Cwik
    # Superlattices and Microstructures 27 (5), 519 (2000)
    Ga [eV] = {0.0 0.12 0.0}
    As [eV] = {0.0 0.32703}
    Dual = No
  }
  MaxAngularMomentum = {
    Ga = "d"
    As = "p"
  }
  Filling = Fermi {
    Temperature [Kelvin] = 77
  }
  SlaterKosterFiles = Type2FileNames {
    Separator = "-"
    Suffix = ".skf"
  }
  KPointsAndWeights = SupercellFolding {
   6 0 0
   0 6 0
   0 0 6
   0.5 0.5 0.5
  }
}

Options = {
  WriteAutotestTag = Yes
}

ParserOptions = {
  ParserVersion = 3
}

Parallel {
  # Allow OMP threads explicitely to test for hybrid parallelisation with
  # MPI-binary. (Check the manual before using this in production runs!)
  UseOmpThreads = Yes
}

