Geometry = GenFormat {
    <<< "geo_end.gen"
}

Hamiltonian = DFTB{
   MaxAngularMomentum = {
      H = "s"
      O = "p"
   }
   SCC = Yes
   SlaterKosterFiles = Type2FileNames{
      Prefix = ./
      Separator = "-"
      Suffix = ".skf"
   }
   ASI = Yes
}
Options {
   WriteResultsTag = Yes
}
ParserOptions {
   IgnoreUnprocessedNodes = Yes
}
Analysis {
   CalculateForces = Yes
}

ParserOptions = {
  ParserVersion = 12
}
