Geometry = GenFormat {
2 S 
 Ga As
     1    1    0.00000000000E+00   0.00000000000E+00   0.00000000000E+00
     2    2    0.11567730000E+01   0.15567730000E+01   0.13567730000E+01
   0.00000000000E+00   0.00000000000E+00   0.00000000000E+00
   0.27135460000E+01   0.27135460000E+01   0.00000000000E+00
   0.00000000000E+00   0.27135460000E+01   0.27135460000E+01
   0.27135460000E+01   0.00000000000E+00   0.27135460000E+01
}

Driver = {}
Hamiltonian = DFTB {
  SCC = Yes
  SCCTolerance = 1e-8
  MaxAngularMomentum = {
    Ga = "d"
    As = "p"
  }
  Filling = Fermi {
    Temperature [Kelvin] = 0
  }
  SlaterKosterFiles = {
    Ga-Ga = "./Ga-Ga.skf"
    Ga-As = "./Ga-As.skf"
    As-Ga = "./As-Ga.skf"
    As-As = "./As-As.skf"
  }
  KPointsAndWeights = SupercellFolding {
  4 0 0
  0 4 0
  0 0 4 
  0.5 0.5 0.5
  }
  Eigensolver = GreensFunction {
    Verbosity = 66 
    FermiLevel [eV] = -0.44169724507331348
    FirstLayerAtoms = { 1 }
    Delta [eV] = 1.0e-6
    ContourPoints = { 20 20 }
    LowestEnergy [eV] = -40.0
    FermiCutoff = 10
  } 
}

Parallel{
  Blacs{BlockSize=2}

  # Allow OMP threads explicitely to test for hybrid parallelisation with
  # MPI-binary. (Check the manual before using this in production runs!)
  UseOmpThreads = Yes
}

Analysis = {
  CalculateForces = Yes
}

Options = {
  WriteAutotestTag = Yes
}

ParserOptions = {
  ParserVersion = 6
}
