Geometry = GenFormat {
  <<< Acene_rattled.gen
}

Hamiltonian = DFTB {

  SCC = Yes
  MaxSccIterations = 100
  SccTolerance = 1e-12

  Filling = Fermi {
    Temperature [K] = 0.0
  }

  MaxAngularMomentum = {
    C = "p"
    H = "s"
  }

  SlaterKosterFiles = Type2FileNames {
    Prefix = "slakos/origin/hybrid/cam/HC/"
    Separator = "-"
    Suffix = ".skf"
  }

  Hybrid = CAM {
    CoulombMatrix = Truncated {
      CoulombCutoff [au] = 2.885010
      GSummationCutoff [au] = 50.985000
    }
    Screening = MatrixBased {}
  }

  KPointsAndWeights {0.0 0.0 0.0 1.0}

}

Analysis {
  PrintForces = Yes
}

Options {
  WriteResultsTag = No
  WriteAutotestTag = Yes
}

ParserOptions {
  ParserVersion = 14
}

Parallel {
  Groups = 1
  # Allow OMP threads explicitely to test for hybrid parallelisation with
  # MPI-binary. (Check the manual before using this in production runs!)
  UseOmpThreads = Yes
}
