Geometry = GenFormat {
 5  C
 C H
    1  1    0.0000000000    0.0000000000    0.0000000000
    2  2    0.6286415746    0.6286415746    0.6286415746
    3  2   -0.6286415746   -0.6286415746    0.6286415746
    4  2   -0.6286415746    0.6286415746   -0.6286415746
    5  2    0.6286415746   -0.6286415746   -0.6286415746
}

Hamiltonian = DFTB {
    SCC = Yes
    SCCTolerance = 1.0E-10
    MaxAngularMomentum = {
        C = "p"
        H = "s"
    }
    Filling = Fermi {
        Temperature [Kelvin] = 500.0
    }
    SlaterKosterFiles = Type2FileNames {
        Separator = "-"
        Suffix = ".skf"
    }
    OnSiteCorrection= {
        # ss' sp
        # ps  pp'
        Cuu = {0        0.04973
               0.04973 -0.01203}
        Cud = {0        0.10512
               0.10512  0.02643}
        Huu = {0}
        Hud = {0}
    }
}

Analysis = {
    ResponseKernel = {
        RPA = Yes
    }
}

Options = {
    WriteAutotestTag = Yes
}

ParserOptions = {
    ParserVersion = 9
}

Parallel {
    # Allow OMP threads explicitely to test for hybrid parallelisation with
    # MPI-binary. (Check the manual before using this in production runs!)
    UseOmpThreads = Yes
}
