Geometry = GenFormat {
    <<< GaAs.gen
}

Driver = {}

Hamiltonian = DFTB {
    SCC = Yes
    ReadInitialCharges = Yes
    SCCTolerance = 10
    MaxAngularMomentum = {
        Ga = "d"
        As = "p"
    }
    Filling = Fermi {
        Temperature [Kelvin] = 500
    }
    SlaterKosterFiles = Type2FileNames {
        Separator = "-"
        Suffix = ".skf"
    }
    KPointsAndWeights [relative] = KLines {
        1  0.0 0.0 0.0
        10 0.0 0.0 0.5
    }
}

Options = {
    WriteAutotestTag = Yes
}

ParserOptions = {
    ParserVersion = 5
}

Parallel {
    # Allow OMP threads explicitely to test for hybrid parallelisation with
    # MPI-binary. (Check the manual before using this in production runs!)
    UseOmpThreads = Yes
}
