Geometry = GenFormat {
  <<< "geo.gen"
}

Hamiltonian = DFTB {

  SCC = Yes
  SCCTolerance = 1e-08

  Charge = 2

  MaxAngularMomentum = {
    C = "p"
    H = "s"
  }

  SlaterKosterFiles = Type2FileNames {
    Prefix = "slakos/origin/ob2-1-1/shift/"
    Separator = "-"
    Suffix = ".skf"
  }

  SpinPolarisation = Colinear {
    UnpairedElectrons = 2
  }

  Filling = Fermi {Temperature [K] = 0.0}

  Hybrid = LC {
    Screening = MatrixBased {}
  }

  SpinConstants = {
    C = {-0.023} # HOMO Wpp
    H = {-0.072} # HOMO Wss
  }

}

ParserOptions {
  ParserVersion = 14
}

Analysis {
  PrintForces = Yes
}

Options {
  WriteAutotestTag = Yes
}

Parallel {
  # Allow OMP threads explicitely to test for hybrid parallelisation with
  # MPI-binary. (Check the manual before using this in production runs!)
  UseOmpThreads = Yes
}
