Geometry = genFormat {
24 C
 C O H
    1    1   -6.16098620E-01   -1.46191496E+00   -2.60827290E-01
    2    2    6.83598380E-01   -1.15822296E+00    2.33132710E-01
    3    1    1.19566237E+00    1.01321040E-01   -2.40147290E-01
    4    1    2.81873370E-01    1.23475504E+00    2.46417710E-01
    5    1   -1.61813363E+00   -4.15094960E-01    2.31145710E-01
    6    1   -1.15639463E+00    9.71990040E-01   -2.01626290E-01
    7    2   -1.96495162E+00    2.00556304E+00    3.55190710E-01
    8    2    7.70357380E-01    2.45745304E+00   -2.89673290E-01
    9    1    2.62332737E+00    2.07108040E-01    2.83980710E-01
   10    2    3.43701738E+00   -8.58099960E-01   -1.88821290E-01
   11    3   -2.88478663E+00    1.84369904E+00    8.82357100E-02
   12    3    1.14162380E-01    3.14560004E+00   -8.81152900E-02
   13    3    3.00825237E+00   -1.68700896E+00    7.95657100E-02
   14    2   -1.02011763E+00   -2.69875196E+00    2.49483710E-01
   15    2   -2.91465962E+00   -6.13292960E-01   -3.25016290E-01
   16    3   -1.19493962E+00    1.02712504E+00   -1.30144629E+00
   17    3    3.04773370E-01    1.26588004E+00    1.34723671E+00
   18    3    1.21816137E+00    9.50310400E-02   -1.34133529E+00
   19    3    3.07363637E+00    1.13403504E+00   -7.64522900E-02
   20    3   -4.58273620E-01   -3.39869496E+00   -1.19864290E-01
   21    3   -3.24490362E+00   -1.47747496E+00   -3.02492900E-02
   22    3   -5.89779630E-01   -1.47906096E+00   -1.36409529E+00
   23    3   -1.65370062E+00   -4.70999960E-01    1.32851371E+00
   24    3    2.60591738E+00    2.29057040E-01    1.38476671E+00
}

Driver {}

Hamiltonian = DFTB {
  Solvation = Cosmo {
    Solvent = fromConstants {
      Epsilon = 80.2
      MolecularMass [amu] = 18.0
      Density [kg/l] = 1.0
    }
    Temperature [K] = 298.15
    FreeEnergyShift [kcal/mol] = 1.13
    Radii = vanDerWaalsRadiiD3 {}
    RadiiScaling = {
      C = 1.3
      O = 1.3
      H = 1.3
    }
    AngularGrid = 110
    Solver = DomainDecomposition {
      MaxMoment = 10
      Accuracy = 1e-8
    }
  }
  SCC = Yes
  SccTolerance = 1e-8
  MaxAngularMomentum {
    H = "s"
    O = "p"
    C = "p"
  }
  SlaterKosterFiles = Type2FileNames {
Prefix = {slakos/origin/mio-1-1/}
    Separator = "-"
    Suffix = ".skf"
  }
}

Options { WriteAutotestTag = Yes }
Analysis { CalculateForces = Yes }
ParserOptions { ParserVersion = 9 }
Parallel { UseOmpThreads = Yes }
