Geometry = GenFormat {
    5  C
  C  H
    1 1    0.0000000000E+00    0.0000000000E+00    0.0000000000E+00
    2 2    0.6287614522E+00    0.6287614522E+00    0.6287614522E+00
    3 2   -0.6287614522E+00   -0.6287614522E+00    0.6287614522E+00
    4 2   -0.6287614522E+00    0.6287614522E+00   -0.6287614522E+00
    5 2    0.6287614522E+00   -0.6287614522E+00   -0.6287614522E+00
}

Hamiltonian = DFTB {
  SCC = Yes
  MaxAngularMomentum = {
    C = "p"
    H = "s"
  }
  SlaterKosterFiles = Type2FileNames {
    Separator = "-"
    Suffix = ".skf"
  }
}

Analysis = {
  Polarisability = {
    Static = Yes
    Dynamic = {
      Frequencies [eV] = 0.001 19.7596
    }
  }
}

Options = {
  WriteAutotestTag = Yes
}

ParserOptions = {
  ParserVersion = 7
}

Parallel {
  # Allow OMP threads explicitely to test for hybrid parallelisation with
  # MPI-binary. (Check the manual before using this in production runs!)
  UseOmpThreads = Yes
}
