Geometry = GenFormat {
  <<< "geo.gen"
}

Hamiltonian = DFTB {
  SCC = Yes
  SCCTolerance = 1e-6
  MaxAngularMomentum {
    H = "s"
  }
  Filling = Fermi {
    Temperature [Kelvin] = 0
  }
  SlaterKosterFiles = Type2Filenames {
    Separator = "-"
    Suffix = ".skf"
  }
  KPointsAndWeights = SupercellFolding {
   1 0 0 
   0 1 0
   0 0 16
   0.0 0.0 0.5
  }
}

Options {
  WriteAutotestTag = Yes
  CalculateForces = Yes
}

ParserOptions {
  ParserVersion = 3
}
