# Finite difference derivative for H0 and S with Richardson extrapolation
Geometry = GenFormat {
    2  F
    Si
    1    1    0.00 0.00 0.00
    2    1    0.25 0.25 0.25
    0.00000000000E+00   0.00000000000E+00   0.00000000000E+00
    0.27135460000E+01   0.27135460000E+01   0.00000000000E+00
    0.00000000000E+00   0.27135460000E+01   0.27135460000E+01
    0.27135460000E+01   0.00000000000E+00   0.27135460000E+01
}

Driver = {}

Hamiltonian = DFTB {
    SCC = No
    MaxAngularMomentum = {
	Si = "p"
    }
    Filling = Fermi {
	Temperature [Kelvin] = 0.0
    }
    SlaterKosterFiles = {
	Si-Si = "./Si-Si.skf"
    }
    KPointsAndWeights = SupercellFolding {
	4 0 0
	0 4 0
	0 0 4
	0.5 0.5 0.5
    }
    Differentiation = Richardson {}
}

Options = {
    WriteAutotestTag = Yes
}

Analysis = {
    CalculateForces = Yes
    MullikenAnalysis = Yes
    AtomResolvedEnergies = Yes
}

ParserOptions = {
    ParserVersion = 5
}
