Geometry = GenFormat {
   <<< Acene_Primitive_Cell.gen
}

Hamiltonian = DFTB {

  SCC = Yes
  SccTolerance = 1e-10
  MaxSccIterations = 60

  Mixer = Simple {MixingParameter = 0.85}

  Filling = Fermi {
    Temperature [K] = 0.0
  }

  MaxAngularMomentum = {
    C = "p"
    H = "s"
  }

  SlaterKosterFiles = Type2FileNames {
    Prefix = "slakos/origin/ob2-1-1/shift/"
    Separator = "-"
    Suffix = ".skf"
  }

  Hybrid = LC {
    CoulombMatrix = Truncated {
      CoulombCutoff = 0.162772E+02
      GSummationCutoff = 0.325543E+02
    }
    Screening = MatrixBased {}
  }

  KPointsAndWeights = SupercellFolding {
     1   0   0
     0   1   0
     0   0   7
    0.0 0.0 0.0
  }

}

Analysis {
  PrintForces = No
}

Options {
  WriteAutotestTag = Yes
}

ParserOptions {
  ParserVersion = 14
}

Parallel {
  Groups = 2
  # Allow OMP threads explicitely to test for hybrid parallelisation with
  # MPI-binary. (Check the manual before using this in production runs!)
  UseOmpThreads = Yes
}
