Geometry = GenFormat {
   15  C
  H  C  O  N
    1 1    0.2552990566E+00   -0.2732381521E+01   -0.3718512039E-06
    2 1    0.2089998603E+01    0.9487324123E+00    0.2412721910E-05
    3 1   -0.1987362303E+01   -0.1791017645E+01    0.2271814212E-06
    4 1   -0.3366243454E+01    0.3306148659E+00   -0.2929905496E-06
    5 1   -0.2656604479E+01    0.1703870027E+01    0.8795577106E+00
    6 1   -0.2656603745E+01    0.1703869686E+01   -0.8795581188E+00
    7 2    0.1309493179E+01   -0.9856424340E+00    0.1052580251E-05
    8 2    0.6789163829E-02    0.1114849414E+01    0.1371150643E-05
    9 2   -0.1206583201E+01    0.3748075527E+00    0.7171849060E-06
   10 2   -0.1119851452E+01   -0.1143475649E+01    0.4663006169E-06
   11 2   -0.2545493665E+01    0.1054051950E+01   -0.2929484117E-07
   12 3    0.2454960128E+01   -0.1550756340E+01    0.1217684163E-05
   13 3    0.4510788911E-01    0.2387995504E+01    0.1605607826E-05
   14 4    0.1712557481E+00   -0.1719712894E+01    0.2696407952E-06
   15 4    0.1231586528E+01    0.4030500719E+00    0.1762324114E-05
}

Driver = {}

Hamiltonian = DFTB {
  SCC = Yes
  SCCTolerance = 1.0E-9
  Mixer = Broyden {}
  
  MaxAngularMomentum = {
   H = "s"
   C = "p"
   N = "p"
   O = "p"
  }

  SlaterKosterFiles = {
    O-O = "O-O.skf"
    O-N = "O-N.skf"
    O-C = "O-C.skf"
    O-H = "O-H.skf"
    N-O = "N-O.skf"
    N-N = "N-N.skf"
    N-C = "N-C.skf"
    N-H = "N-H.skf"
    C-O = "C-O.skf"
    C-N = "C-N.skf"
    C-C = "C-C.skf"
    C-H = "C-H.skf"
    H-O = "H-O.skf"
    H-N = "H-N.skf"
    H-C = "H-C.skf"
    H-H = "H-H.skf"
  }

  SpinPolarisation = Colinear {
    UnpairedElectrons = 2
  }

  SpinConstants = {
    O = {
         -0.04782
    	 -0.03335
    	 -0.03335
     	 -0.03307
    }
    N = {
         -0.04687
 	 -0.03170
     	 -0.03165
     	 -0.03072
    }
    C = {
         -0.04559
    	 -0.02930
     	 -0.02930
     	 -0.02755
    }
    H = {
      	 -0.07925
    }
    ShellResolvedSpin = Yes
  }

  OnSiteCorrection= {
    Huu = {0}
    Hud = {0}
    Cuu = {0        0.04973
           0.04973 -0.01203}
    Cud = {0        0.10512
           0.10512  0.02643}
    Nuu = {0        0.06816
           0.06816 -0.00879}
    Nud = {0        0.12770
           0.12770  0.03246}
    Ouu = {0        0.08672
           0.08672 -0.00523}
    Oud = {0        0.14969
           0.14969  0.03834}
  }

  RangeSeparated = LC {
    Screening = NeighbourBased {}
  }
  
}

Options = {
  WriteAutotestTag = Yes
}

Analysis {
  CalculateForces = Yes
}

ParserOptions = {
  ParserVersion = 8
}
