Geometry = GenFormat {
   2  H
  C
    1 1    0.2756230044E+01    0.2849950460E+01    0.1794011798E+01
    2 1    0.2656226397E+01    0.2949964389E+01    0.3569110265E+00
    0 0 0
    0.2140932670E+01 18.0 10
}

Hamiltonian = DFTB {
  SCC = No
  MaxAngularMomentum = {
    C = "p"
  }
  Filling = Fermi {
    Temperature [Kelvin] = 0.0
  }
  SlaterKosterFiles = {
    C-C = "./C-C.skf"
  }
  KPointsAndWeights = HelicalSampled {20 4 0.5 0.25}
}

Options = {
  WriteAutotestTag = Yes
}

Analysis = {
  CalculateForces = Yes
  MullikenAnalysis = Yes
}

ParserOptions = {
  ParserVersion = 8
}

Parallel {
  # Allow OMP threads explicitely to test for hybrid parallelisation with
  # MPI-binary. (Check the manual before using this in production runs!)
  UseOmpThreads = Yes
}
