Geometry = GenFormat {
16 S
C
     1   1   0.0000000000E+00   0.0000000000E+00   0.0000000000E+00
     2   1   8.9250000000E-01   8.9250000000E-01   8.9250000000E-01
     3   1   1.7850000000E+00   1.7850000000E+00   0.0000000000E+00
     4   1   2.6775000000E+00   2.6775000000E+00   8.9250000000E-01
     5   1   1.7850000000E+00   0.0000000000E+00   1.7850000000E+00
     6   1   2.6775000000E+00   8.9250000000E-01   2.6775000000E+00
     7   1   0.0000000000E+00   1.7850000000E+00   1.7850000000E+00
     8   1   8.9250000000E-01   2.6775000000E+00   2.6775000000E+00
     9   1   3.5700000000E+00   0.0000000000E+00   0.0000000000E+00
    10   1   4.4625000000E+00   8.9250000000E-01   8.9250000000E-01
    11   1   5.3550000000E+00   1.7850000000E+00   0.0000000000E+00
    12   1   6.2475000000E+00   2.6775000000E+00   8.9250000000E-01
    13   1   5.3550000000E+00   0.0000000000E+00   1.7850000000E+00
    14   1   6.2475000000E+00   8.9250000000E-01   2.6775000000E+00
    15   1   3.5700000000E+00   1.7850000000E+00   1.7850000000E+00
    16   1   4.4625000000E+00   2.6775000000E+00   2.6775000000E+00
  0.0000000000E+00   0.0000000000E+00   0.0000000000E+00
  7.1400000000E+00   0.0000000000E+00   0.0000000000E+00
  0.0000000000E+00   3.5700000000E+00   0.0000000000E+00
  0.0000000000E+00   0.0000000000E+00   3.5700000000E+00
}
Driver = {}

Hamiltonian = DFTB {
  SCC = Yes
  SCCTolerance = 1e-5
  MaxSCCIterations = 100
  Filling = Fermi {
    Temperature [K] = 300
  }
  KPointsAndWeights {
    0.0 0.0 0.0  1.0
  }
  MaxAngularMomentum {
    C = "p"
  }
  SlaterKosterFiles = Type2FileNames {
    Separator = "-"
    Suffix = ".skf"
  }
  # Warning, the DftD4 parameters below are fake ones for test purposes only!
  Dispersion = DftD4 {
    a1 = 0.52
    a2 = 3.6
    s9 = 0.0
    s6 = 1.0
    s8 = 0.61
    CutoffInter = 60
    CoordinationNumber = Cov {
       Cutoff = 34
    }
    ChargeModel = EEQ {
       CoordinationNumber = Erf {
          Cutoff = 34
       }
    }
  }
}

Options {
  WriteAutotestTag = Yes
  CalculateForces = Yes
}

ParserOptions {
  ParserVersion = 4
}

Parallel {
  # Allow OMP threads explicitely to test for hybrid parallelisation with
  # MPI-binary. (Check the manual before using this in production runs!)
  UseOmpThreads = Yes
}

