Geometry = GenFormat {
   12  C
 C  H
   1 1      0.00000000      0.41727209      1.34035331
   2 1      0.00000000      1.36277581      0.31264346
   3 1      0.00000000      0.94549248     -1.02003049
   4 1      0.00000000     -0.41727209     -1.32501204
   5 1      0.00000000     -1.36277581     -0.29730219
   6 1      0.00000000     -0.94549248      1.03537176
   7 2      0.00000000      0.74550740      2.38862741
   8 2      0.00000000      2.43471932      0.55254238
   9 2      0.00000000      1.68922144     -1.82842183
  10 2      0.00000000     -0.74550739     -2.37328614
  11 2      0.00000000     -2.43471932     -0.53720110
  12 2      0.00000000     -1.68922144      1.84376309
}

Hamiltonian = xTB {
   SCC = Yes
   SCCTolerance = 1.0E-7 # abnormally tight tolerance used for accuracy
   Method = "GFN2-xTB"
   Charge = 0.0
   Filling = Fermi { Temperature [Kelvin] = 273.15 }
}

ElectronDynamics = {
   Steps = 20000
   TimeStep [au] = 0.2
   Perturbation = Laser {
     PolarizationDirection = 0.0 1.0 1.0
     LaserEnergy [eV] = 6.85
   }
   FieldStrength [v/a] = 0.01
   Populations = Yes
}

Options = { WriteAutotestTag = Yes }
ParserOptions { ParserVersion = 9 }
Parallel { UseOmpThreads = Yes }
