Geometry = GenFormat {
  <<< geo.gen
}

DisplayModes {
  Animate = Yes
  PlotModes = 9:11
}

SlaterKosterFiles = Type2FileNames {
  Prefix = "slakos/origin/mio-1-1/"
  Separator = "-"
  Suffix = ".skf"
}

Hessian = DirectRead {
  File = "hessian.out"
}

InputVersion = 3
