Geometry = GenFormat {
  <<< geo.gen
}

DisplayModes {
  Animate = Yes
  PlotModes = 9:11
}

SlaterKosterFiles = Type2FileNames {
  Prefix = "slakos/origin/mio-1-1/"
  Separator = "-"
  Suffix = ".skf"
}

Hessian = {
  <<< "hessian.out"
}

# Lock the phase and degenerate eigenvectors for test purposes
PhaseLock = {}

InputVersion = 3
