Geometry =  GenFormat {
<<< 'geo.gen'
}

Driver {}
    
Hamiltonian = DFTB {
  SCC = Yes
  SCCTolerance = 1.00E-10
  MaxAngularMomentum {
    H = "s"
    O = "p"
  }
  SlaterKosterFiles = Type2FileNames {
    Separator = "-"
    Suffix  = ".skf"
  }
  # NOTE: Never use OrbitalResolvedScc with this SK-set
  # This is done here only for test purposes
  OrbitalResolvedScc = Yes
  ThirdOrderFull = Yes
  # NOTE: The Hubbard deriv values here are fake
  HubbardDerivs {
    H = -0.16
    O = -0.12 -0.20
  }
}

Options {
  WriteAutotestTag = Yes
}

Analysis {
  CalculateForces = Yes
}

ParserOptions {
  ParserVersion = 5
}
