Geometry = GenFormat {

 3  C
  O H
     1    1    0.00000000000E+00  -0.10000000000E+01   0.00000000000E+00
     2    2    0.00000000000E+00   0.00000000000E+00   0.78306400000E+00
     3    2    0.00000000000E+00   0.00000000000E+00  -0.78306400000E+00

}

Driver {}

Hamiltonian = DFTB {

  SCC = Yes
  SCCTolerance = 1.00E-10
  MaxSCCIterations = 1000

  Mixer = Broyden {}

  MaxAngularMomentum {
    O = "p"
    H = "s"
  }

  Filling = Fermi {
    Temperature [Kelvin] = 1.0E-8
  }

  SlaterKosterFiles = Type2FileNames {
    Separator = "-"
    Suffix  = ".skf"
  }

#  ElectricField {
#
#    PointCharges {
#
#      CoordsAndCharges {
#        -0.944863438887178  -9.44863438887178  1.70075418999692    2.5
#         4.34637181888102   -5.85815332110050  2.64561762888410   -1.9
#      }
#
#    }
#
#  }

}

Analysis {
  CalculateForces = Yes
}

Options = {
  WriteAutotestTag = No
}

ParserOptions {
  ParserVersion = 6
}

Parallel {
  # Allow OMP threads explicitely to test for hybrid parallelisation with
  # MPI-binary. (Check the manual before using this in production runs!)
  UseOmpThreads = Yes
}
