Geometry = VaspFormat {
 <<< "POSCAR"
}


Driver {}


Hamiltonian = DFTB {
  SCC = Yes
  SccTolerance = 1-10
  MaxAngularMomentum {
    H = "s"
    N = "p"
  }
  SlaterKosterFiles = Type2FileNames {
    Separator = "-"
    Suffix = ".skf"
  }
  KPointsAndWeights = SupercellFolding {
   1 0 0
   0 1 0
   0 0 1
   0.0 0.0 0.0
  }
}

Options {
  WriteAutotestTag = Yes
}

Analysis {
  CalculateForces = Yes
}

ParserOptions {
  ParserVersion = 8
}
