 H  N
    1.00000000000000
    5.01336000000000    0.00000000000000    0.00000000000000
    0.00000000000000    5.01336000000000    0.00000000000000
    0.00000000000000    0.00000000000000    5.01336000000000
 12 4
Cartesian
    2.19855889440000    1.76390058240000    0.88014548160000
    1.76390058240000    0.88014548160000    2.19855889440000
    0.88014548160000    2.19855889440000    1.76390058240000
    4.84115108400000    1.61941554720000    4.93981400880000
    4.35630903840000    2.49981169680000    3.63248012160000
    3.51957925440000    1.15357413600000    4.08403345680000
    4.08403345680000    3.51957925440000    1.15357413600000
    4.93981400880000    4.84115108400000    1.61941554720000
    3.63248012160000    4.35630903840000    2.49981169680000
    2.49981169680000    3.63248012160000    4.35630903840000
    1.15357413600000    4.08403345680000    3.51957925440000
    1.61941554720000    4.93981400880000    4.84115108400000
    1.37461317840000    1.37461317840000    1.37461317840000
    3.99815460000000    1.99105592400000    4.46364507600000
    4.46364507600000    3.99815460000000    1.99105592400000
    1.99105592400000    4.46364507600000    3.99815460000000
