Geometry = GenFormat {
216  S
 Si
     1    1   -0.26948351400E+01  -0.26948351400E+01  -0.26948351400E+01
     2    1   -0.13474175700E+01  -0.13474175700E+01  -0.13474175700E+01
     3    1    0.00000000000E+00   0.00000000000E+00  -0.26948351400E+01
     4    1    0.13474175700E+01   0.13474175700E+01  -0.13474175700E+01
     5    1    0.00000000000E+00  -0.26948351400E+01   0.00000000000E+00
     6    1    0.13474175700E+01  -0.13474175700E+01   0.13474175700E+01
     7    1   -0.26948351400E+01   0.00000000000E+00   0.00000000000E+00
     8    1   -0.13474175700E+01   0.13474175700E+01   0.13474175700E+01
     9    1   -0.26948351400E+01  -0.26948351400E+01   0.26948351400E+01
    10    1   -0.13474175700E+01  -0.13474175700E+01   0.40422527100E+01
    11    1    0.00000000000E+00   0.00000000000E+00   0.26948351400E+01
    12    1    0.13474175700E+01   0.13474175700E+01   0.40422527100E+01
    13    1    0.00000000000E+00  -0.26948351400E+01   0.53896702800E+01
    14    1    0.13474175700E+01  -0.13474175700E+01   0.67370878500E+01
    15    1   -0.26948351400E+01   0.00000000000E+00   0.53896702800E+01
    16    1   -0.13474175700E+01   0.13474175700E+01   0.67370878500E+01
    17    1   -0.26948351400E+01  -0.26948351400E+01   0.80845054200E+01
    18    1   -0.13474175700E+01  -0.13474175700E+01   0.94319229900E+01
    19    1    0.00000000000E+00   0.00000000000E+00   0.80845054200E+01
    20    1    0.13474175700E+01   0.13474175700E+01   0.94319229900E+01
    21    1    0.00000000000E+00  -0.26948351400E+01   0.10779340560E+02
    22    1    0.13474175700E+01  -0.13474175700E+01   0.12126758130E+02
    23    1   -0.26948351400E+01   0.00000000000E+00   0.10779340560E+02
    24    1   -0.13474175700E+01   0.13474175700E+01   0.12126758130E+02
    25    1   -0.26948351400E+01   0.26948351400E+01  -0.26948351400E+01
    26    1   -0.13474175700E+01   0.40422527100E+01  -0.13474175700E+01
    27    1    0.00000000000E+00   0.53896702800E+01  -0.26948351400E+01
    28    1    0.13474175700E+01   0.67370878500E+01  -0.13474175700E+01
    29    1    0.00000000000E+00   0.26948351400E+01   0.00000000000E+00
    30    1    0.13474175700E+01   0.40422527100E+01   0.13474175700E+01
    31    1   -0.26948351400E+01   0.53896702800E+01   0.00000000000E+00
    32    1   -0.13474175700E+01   0.67370878500E+01   0.13474175700E+01
    33    1   -0.26948351400E+01   0.26948351400E+01   0.26948351400E+01
    34    1   -0.13474175700E+01   0.40422527100E+01   0.40422527100E+01
    35    1    0.00000000000E+00   0.53896702800E+01   0.26948351400E+01
    36    1    0.13474175700E+01   0.67370878500E+01   0.40422527100E+01
    37    1    0.00000000000E+00   0.26948351400E+01   0.53896702800E+01
    38    1    0.13474175700E+01   0.40422527100E+01   0.67370878500E+01
    39    1   -0.26948351400E+01   0.53896702800E+01   0.53896702800E+01
    40    1   -0.13474175700E+01   0.67370878500E+01   0.67370878500E+01
    41    1   -0.26948351400E+01   0.26948351400E+01   0.80845054200E+01
    42    1   -0.13474175700E+01   0.40422527100E+01   0.94319229900E+01
    43    1    0.00000000000E+00   0.53896702800E+01   0.80845054200E+01
    44    1    0.13474175700E+01   0.67370878500E+01   0.94319229900E+01
    45    1    0.00000000000E+00   0.26948351400E+01   0.10779340560E+02
    46    1    0.13474175700E+01   0.40422527100E+01   0.12126758130E+02
    47    1   -0.26948351400E+01   0.53896702800E+01   0.10779340560E+02
    48    1   -0.13474175700E+01   0.67370878500E+01   0.12126758130E+02
    49    1   -0.26948351400E+01   0.80845054200E+01  -0.26948351400E+01
    50    1   -0.13474175700E+01   0.94319229900E+01  -0.13474175700E+01
    51    1    0.00000000000E+00   0.10779340560E+02  -0.26948351400E+01
    52    1    0.13474175700E+01   0.12126758130E+02  -0.13474175700E+01
    53    1    0.00000000000E+00   0.80845054200E+01   0.00000000000E+00
    54    1    0.13474175700E+01   0.94319229900E+01   0.13474175700E+01
    55    1   -0.26948351400E+01   0.10779340560E+02   0.00000000000E+00
    56    1   -0.13474175700E+01   0.12126758130E+02   0.13474175700E+01
    57    1   -0.26948351400E+01   0.80845054200E+01   0.26948351400E+01
    58    1   -0.13474175700E+01   0.94319229900E+01   0.40422527100E+01
    59    1    0.00000000000E+00   0.10779340560E+02   0.26948351400E+01
    60    1    0.13474175700E+01   0.12126758130E+02   0.40422527100E+01
    61    1    0.00000000000E+00   0.80845054200E+01   0.53896702800E+01
    62    1    0.13474175700E+01   0.94319229900E+01   0.67370878500E+01
    63    1   -0.26948351400E+01   0.10779340560E+02   0.53896702800E+01
    64    1   -0.13474175700E+01   0.12126758130E+02   0.67370878500E+01
    65    1   -0.26948351400E+01   0.80845054200E+01   0.80845054200E+01
    66    1   -0.13474175700E+01   0.94319229900E+01   0.94319229900E+01
    67    1    0.00000000000E+00   0.10779340560E+02   0.80845054200E+01
    68    1    0.13474175700E+01   0.12126758130E+02   0.94319229900E+01
    69    1    0.00000000000E+00   0.80845054200E+01   0.10779340560E+02
    70    1    0.13474175700E+01   0.94319229900E+01   0.12126758130E+02
    71    1   -0.26948351400E+01   0.10779340560E+02   0.10779340560E+02
    72    1   -0.13474175700E+01   0.12126758130E+02   0.12126758130E+02
    73    1    0.26948351400E+01  -0.26948351400E+01  -0.26948351400E+01
    74    1    0.40422527100E+01  -0.13474175700E+01  -0.13474175700E+01
    75    1    0.53896702800E+01   0.00000000000E+00  -0.26948351400E+01
    76    1    0.67370878500E+01   0.13474175700E+01  -0.13474175700E+01
    77    1    0.53896702800E+01  -0.26948351400E+01   0.00000000000E+00
    78    1    0.67370878500E+01  -0.13474175700E+01   0.13474175700E+01
    79    1    0.26948351400E+01   0.00000000000E+00   0.00000000000E+00
    80    1    0.40422527100E+01   0.13474175700E+01   0.13474175700E+01
    81    1    0.26948351400E+01  -0.26948351400E+01   0.26948351400E+01
    82    1    0.40422527100E+01  -0.13474175700E+01   0.40422527100E+01
    83    1    0.53896702800E+01   0.00000000000E+00   0.26948351400E+01
    84    1    0.67370878500E+01   0.13474175700E+01   0.40422527100E+01
    85    1    0.53896702800E+01  -0.26948351400E+01   0.53896702800E+01
    86    1    0.67370878500E+01  -0.13474175700E+01   0.67370878500E+01
    87    1    0.26948351400E+01   0.00000000000E+00   0.53896702800E+01
    88    1    0.40422527100E+01   0.13474175700E+01   0.67370878500E+01
    89    1    0.26948351400E+01  -0.26948351400E+01   0.80845054200E+01
    90    1    0.40422527100E+01  -0.13474175700E+01   0.94319229900E+01
    91    1    0.53896702800E+01   0.00000000000E+00   0.80845054200E+01
    92    1    0.67370878500E+01   0.13474175700E+01   0.94319229900E+01
    93    1    0.53896702800E+01  -0.26948351400E+01   0.10779340560E+02
    94    1    0.67370878500E+01  -0.13474175700E+01   0.12126758130E+02
    95    1    0.26948351400E+01   0.00000000000E+00   0.10779340560E+02
    96    1    0.40422527100E+01   0.13474175700E+01   0.12126758130E+02
    97    1    0.26948351400E+01   0.26948351400E+01  -0.26948351400E+01
    98    1    0.40422527100E+01   0.40422527100E+01  -0.13474175700E+01
    99    1    0.53896702800E+01   0.53896702800E+01  -0.26948351400E+01
   100    1    0.67370878500E+01   0.67370878500E+01  -0.13474175700E+01
   101    1    0.53896702800E+01   0.26948351400E+01   0.00000000000E+00
   102    1    0.67370878500E+01   0.40422527100E+01   0.13474175700E+01
   103    1    0.26948351400E+01   0.53896702800E+01   0.00000000000E+00
   104    1    0.40422527100E+01   0.67370878500E+01   0.13474175700E+01
   105    1    0.26948351400E+01   0.26948351400E+01   0.26948351400E+01
   106    1    0.40422527100E+01   0.40422527100E+01   0.40422527100E+01
   107    1    0.53896702800E+01   0.53896702800E+01   0.26948351400E+01
   108    1    0.67370878500E+01   0.67370878500E+01   0.40422527100E+01
   109    1    0.53896702800E+01   0.26948351400E+01   0.53896702800E+01
   110    1    0.67370878500E+01   0.40422527100E+01   0.67370878500E+01
   111    1    0.26948351400E+01   0.53896702800E+01   0.53896702800E+01
   112    1    0.40422527100E+01   0.67370878500E+01   0.67370878500E+01
   113    1    0.26948351400E+01   0.26948351400E+01   0.80845054200E+01
   114    1    0.40422527100E+01   0.40422527100E+01   0.94319229900E+01
   115    1    0.53896702800E+01   0.53896702800E+01   0.80845054200E+01
   116    1    0.67370878500E+01   0.67370878500E+01   0.94319229900E+01
   117    1    0.53896702800E+01   0.26948351400E+01   0.10779340560E+02
   118    1    0.67370878500E+01   0.40422527100E+01   0.12126758130E+02
   119    1    0.26948351400E+01   0.53896702800E+01   0.10779340560E+02
   120    1    0.40422527100E+01   0.67370878500E+01   0.12126758130E+02
   121    1    0.26948351400E+01   0.80845054200E+01  -0.26948351400E+01
   122    1    0.40422527100E+01   0.94319229900E+01  -0.13474175700E+01
   123    1    0.53896702800E+01   0.10779340560E+02  -0.26948351400E+01
   124    1    0.67370878500E+01   0.12126758130E+02  -0.13474175700E+01
   125    1    0.53896702800E+01   0.80845054200E+01   0.00000000000E+00
   126    1    0.67370878500E+01   0.94319229900E+01   0.13474175700E+01
   127    1    0.26948351400E+01   0.10779340560E+02   0.00000000000E+00
   128    1    0.40422527100E+01   0.12126758130E+02   0.13474175700E+01
   129    1    0.26948351400E+01   0.80845054200E+01   0.26948351400E+01
   130    1    0.40422527100E+01   0.94319229900E+01   0.40422527100E+01
   131    1    0.53896702800E+01   0.10779340560E+02   0.26948351400E+01
   132    1    0.67370878500E+01   0.12126758130E+02   0.40422527100E+01
   133    1    0.53896702800E+01   0.80845054200E+01   0.53896702800E+01
   134    1    0.67370878500E+01   0.94319229900E+01   0.67370878500E+01
   135    1    0.26948351400E+01   0.10779340560E+02   0.53896702800E+01
   136    1    0.40422527100E+01   0.12126758130E+02   0.67370878500E+01
   137    1    0.26948351400E+01   0.80845054200E+01   0.80845054200E+01
   138    1    0.40422527100E+01   0.94319229900E+01   0.94319229900E+01
   139    1    0.53896702800E+01   0.10779340560E+02   0.80845054200E+01
   140    1    0.67370878500E+01   0.12126758130E+02   0.94319229900E+01
   141    1    0.53896702800E+01   0.80845054200E+01   0.10779340560E+02
   142    1    0.67370878500E+01   0.94319229900E+01   0.12126758130E+02
   143    1    0.26948351400E+01   0.10779340560E+02   0.10779340560E+02
   144    1    0.40422527100E+01   0.12126758130E+02   0.12126758130E+02
   145    1    0.80845054200E+01  -0.26948351400E+01  -0.26948351400E+01
   146    1    0.94319229900E+01  -0.13474175700E+01  -0.13474175700E+01
   147    1    0.10779340560E+02   0.00000000000E+00  -0.26948351400E+01
   148    1    0.12126758130E+02   0.13474175700E+01  -0.13474175700E+01
   149    1    0.10779340560E+02  -0.26948351400E+01   0.00000000000E+00
   150    1    0.12126758130E+02  -0.13474175700E+01   0.13474175700E+01
   151    1    0.80845054200E+01   0.00000000000E+00   0.00000000000E+00
   152    1    0.94319229900E+01   0.13474175700E+01   0.13474175700E+01
   153    1    0.80845054200E+01  -0.26948351400E+01   0.26948351400E+01
   154    1    0.94319229900E+01  -0.13474175700E+01   0.40422527100E+01
   155    1    0.10779340560E+02   0.00000000000E+00   0.26948351400E+01
   156    1    0.12126758130E+02   0.13474175700E+01   0.40422527100E+01
   157    1    0.10779340560E+02  -0.26948351400E+01   0.53896702800E+01
   158    1    0.12126758130E+02  -0.13474175700E+01   0.67370878500E+01
   159    1    0.80845054200E+01   0.00000000000E+00   0.53896702800E+01
   160    1    0.94319229900E+01   0.13474175700E+01   0.67370878500E+01
   161    1    0.80845054200E+01  -0.26948351400E+01   0.80845054200E+01
   162    1    0.94319229900E+01  -0.13474175700E+01   0.94319229900E+01
   163    1    0.10779340560E+02   0.00000000000E+00   0.80845054200E+01
   164    1    0.12126758130E+02   0.13474175700E+01   0.94319229900E+01
   165    1    0.10779340560E+02  -0.26948351400E+01   0.10779340560E+02
   166    1    0.12126758130E+02  -0.13474175700E+01   0.12126758130E+02
   167    1    0.80845054200E+01   0.00000000000E+00   0.10779340560E+02
   168    1    0.94319229900E+01   0.13474175700E+01   0.12126758130E+02
   169    1    0.80845054200E+01   0.26948351400E+01  -0.26948351400E+01
   170    1    0.94319229900E+01   0.40422527100E+01  -0.13474175700E+01
   171    1    0.10779340560E+02   0.53896702800E+01  -0.26948351400E+01
   172    1    0.12126758130E+02   0.67370878500E+01  -0.13474175700E+01
   173    1    0.10779340560E+02   0.26948351400E+01   0.00000000000E+00
   174    1    0.12126758130E+02   0.40422527100E+01   0.13474175700E+01
   175    1    0.80845054200E+01   0.53896702800E+01   0.00000000000E+00
   176    1    0.94319229900E+01   0.67370878500E+01   0.13474175700E+01
   177    1    0.80845054200E+01   0.26948351400E+01   0.26948351400E+01
   178    1    0.94319229900E+01   0.40422527100E+01   0.40422527100E+01
   179    1    0.10779340560E+02   0.53896702800E+01   0.26948351400E+01
   180    1    0.12126758130E+02   0.67370878500E+01   0.40422527100E+01
   181    1    0.10779340560E+02   0.26948351400E+01   0.53896702800E+01
   182    1    0.12126758130E+02   0.40422527100E+01   0.67370878500E+01
   183    1    0.80845054200E+01   0.53896702800E+01   0.53896702800E+01
   184    1    0.94319229900E+01   0.67370878500E+01   0.67370878500E+01
   185    1    0.80845054200E+01   0.26948351400E+01   0.80845054200E+01
   186    1    0.94319229900E+01   0.40422527100E+01   0.94319229900E+01
   187    1    0.10779340560E+02   0.53896702800E+01   0.80845054200E+01
   188    1    0.12126758130E+02   0.67370878500E+01   0.94319229900E+01
   189    1    0.10779340560E+02   0.26948351400E+01   0.10779340560E+02
   190    1    0.12126758130E+02   0.40422527100E+01   0.12126758130E+02
   191    1    0.80845054200E+01   0.53896702800E+01   0.10779340560E+02
   192    1    0.94319229900E+01   0.67370878500E+01   0.12126758130E+02
   193    1    0.80845054200E+01   0.80845054200E+01  -0.26948351400E+01
   194    1    0.94319229900E+01   0.94319229900E+01  -0.13474175700E+01
   195    1    0.10779340560E+02   0.10779340560E+02  -0.26948351400E+01
   196    1    0.12126758130E+02   0.12126758130E+02  -0.13474175700E+01
   197    1    0.10779340560E+02   0.80845054200E+01   0.00000000000E+00
   198    1    0.12126758130E+02   0.94319229900E+01   0.13474175700E+01
   199    1    0.80845054200E+01   0.10779340560E+02   0.00000000000E+00
   200    1    0.94319229900E+01   0.12126758130E+02   0.13474175700E+01
   201    1    0.80845054200E+01   0.80845054200E+01   0.26948351400E+01
   202    1    0.94319229900E+01   0.94319229900E+01   0.40422527100E+01
   203    1    0.10779340560E+02   0.10779340560E+02   0.26948351400E+01
   204    1    0.12126758130E+02   0.12126758130E+02   0.40422527100E+01
   205    1    0.10779340560E+02   0.80845054200E+01   0.53896702800E+01
   206    1    0.12126758130E+02   0.94319229900E+01   0.67370878500E+01
   207    1    0.80845054200E+01   0.10779340560E+02   0.53896702800E+01
   208    1    0.94319229900E+01   0.12126758130E+02   0.67370878500E+01
   209    1    0.80845054200E+01   0.80845054200E+01   0.80845054200E+01
   210    1    0.94319229900E+01   0.94319229900E+01   0.94319229900E+01
   211    1    0.10779340560E+02   0.10779340560E+02   0.80845054200E+01
   212    1    0.12126758130E+02   0.12126758130E+02   0.94319229900E+01
   213    1    0.10779340560E+02   0.80845054200E+01   0.10779340560E+02
   214    1    0.12126758130E+02   0.94319229900E+01   0.12126758130E+02
   215    1    0.80845054200E+01   0.10779340560E+02   0.10779340560E+02
   216    1    0.94319229900E+01   0.12126758130E+02   0.12126758130E+02
   0.00000000000E+00   0.00000000000E+00   0.00000000000E+00
   0.16169009610E+02   0.00000000000E+00   0.00000000000E+00
   0.00000000000E+00   0.16169009610E+02   0.00000000000E+00
   0.00000000000E+00   0.00000000000E+00   0.16169009610E+02
}

Driver = {}

Hamiltonian = DFTB {
  SCC = No
  MaxAngularMomentum = {
    Si = "p"
  }
  Filling = Fermi {
    Temperature [Kelvin] = 464.180200000000
  }
  SlaterKosterFiles = {
    Si-Si = "./Si-Si.skf"
  }
  KPointsAndWeights = {
 0.250000000000000 -0.250000000000000 0.250000000000000 1.00000000000000
 -0.250000000000000 -0.250000000000000 0.250000000000000 1.00000000000000
 0.250000000000000 0.250000000000000 0.250000000000000 1.00000000000000
 -0.250000000000000 0.250000000000000 0.250000000000000 1.00000000000000
  }
  Eigensolver = Standard {}
}

Options = {
  MullikenAnalysis = Yes
  CalculateForces = Yes
  WriteAutotestTag = Yes
  AtomResolvedEnergies = Yes
}

ParserOptions = {
  ParserVersion = 3
}

Parallel {
  # Allow OMP threads explicitely to test for hybrid parallelisation with
  # MPI-binary. (Check the manual before using this in production runs!)
  UseOmpThreads = Yes
}

