Geometry = GenFormat {
 3  C
  O H
     1    1    0.00000000000  -1.00000000000   0.00000000000
     2    2    0.00000000000   0.00000000000   0.78306400000
     3    2    0.00000000000   0.00000000000  -0.78306400000
}

Hamiltonian = DFTB {

  SCC = Yes
  SCCTolerance = 1.0e-04
  ConvergentSCCOnly = Yes
  MaxSCCIterations = 10

  MaxAngularMomentum {
    O = "p"
    H = "s"
  }

  Filling = Fermi {
    Temperature [Kelvin] = 1.0
  }

  SlaterKosterFiles = Type2FileNames {
    Separator = "-"
    Suffix = ".skf"
    Prefix = "slakos/origin/mio-1-1/"
  }

  ElectronicConstraints {
    Constraints {
      MullikenPopulation {
        Atoms = H
        TotalPopulation = 1.5
      }
      MullikenPopulation {
        Atoms = 2
        Populations = 1.0
      }
    }
    Optimiser = SteepestDescent {ScalingFactor = 0.15}
    ConstrTolerance = 1.0e-08
    MaxConstrIterations = 20
    ConvergentConstrOnly = No
  }
}

Options {
  WriteAutotestTag = Yes
}

Analysis {
  CalculateForces = Yes
}

ParserOptions {
  ParserVersion = 13
}

Parallel {
  UseOmpThreads = Yes
}
