Geometry = GenFormat {
   20  H
  C
    1 1    0.2756230044E+01    0.2849950460E+01    0.1794011798E+01
    2 1    0.2656226397E+01    0.2949964389E+01    0.3569110265E+00
    3 1    0.4149823216E+00    0.3947943175E+01    0.1774023191E+01
    4 1   -0.1984731085E+01    0.3437783679E+01    0.1784008240E+01
    5 1   -0.3626350732E+01    0.1614594006E+01    0.1784022394E+01
    6 1   -0.3882893767E+01   -0.8252790149E+00    0.1784006601E+01
    7 1   -0.2656230041E+01   -0.2949950471E+01    0.1784011798E+01
    8 1   -0.4149823216E+00   -0.3947943175E+01    0.1784023191E+01
    9 1    0.1984731085E+01   -0.3437783679E+01    0.1784008240E+01
   10 1    0.3626350732E+01   -0.1614594006E+01    0.1784022394E+01
   11 1    0.3882893767E+01    0.8252790258E+00    0.1784006601E+01
   12 1    0.4149905833E+00    0.3947943870E+01    0.3569255177E+00
   13 1   -0.1984725150E+01    0.3437762712E+01    0.3569151866E+00
   14 1   -0.3626358050E+01    0.1614595957E+01    0.3569260541E+00
   15 1   -0.3882900023E+01   -0.8252696970E+00    0.3569133218E+00
   16 1   -0.2656226396E+01   -0.2949964400E+01    0.3569110265E+00
   17 1   -0.4149905833E+00   -0.3947943870E+01    0.3569255177E+00
   18 1    0.1984725150E+01   -0.3437762712E+01    0.3569151866E+00
   19 1    0.3626358050E+01   -0.1614595957E+01    0.3569260541E+00
   20 1    0.3882900026E+01    0.8252697074E+00    0.3569133218E+00
    0 0 0
    0.2140932670E+01   18.0 1
}

Hamiltonian = DFTB {
  SCC = No
  MaxAngularMomentum = {
    C = "p"
  }
  Filling = Fermi {
    Temperature [Kelvin] = 500.0
  }
  Solver = PEXSI {
    Sparse = Yes
  }
  SlaterKosterFiles = {
    C-C = "./C-C.skf"
  }
  KPointsAndWeights = HelicalUniform {2 0.5}
}

Options = {
  WriteAutotestTag = Yes
}

Analysis = {
  CalculateForces = Yes
  MullikenAnalysis = Yes
}

ParserOptions = {
  ParserVersion = 8
}

Parallel = {
  UseOmpThreads = No
  Groups = 2
}
