Geometry = GenFormat {
    <<< GaAs.gen
}

Driver = {}

Hamiltonian = DFTB {
    SCC = Yes
    SCCTolerance = 1.0E-8  # Very small!
    MaxAngularMomentum = {
        Ga = "d"
        As = "p"
    }
    Filling = Fermi {
        Temperature [Kelvin] = 500
    }
    SlaterKosterFiles = Type2FileNames {
        Separator = "-"
        Suffix = ".skf"
    }
    KPointsAndWeights = SupercellFolding {
        6 0 0
        0 6 0
        0 0 6
        0.5 0.5 0.5
    }
}

Options = {
    WriteAutotestTag = No
}

ParserOptions = {
    ParserVersion = 5
}

Parallel {
    # Allow OMP threads explicitely to test for hybrid parallelisation with
    # MPI-binary. (Check the manual before using this in production runs!)
    UseOmpThreads = Yes
}
