Geometry = GenFormat {
    7  C
    C  H
    1 1    0.0000000000E+00    0.0000000000E+00    0.0000000000E+00
    2 1    0.0000000000E+00    0.0000000000E+00   -0.1312494885E+01
    3 1    0.0000000000E+00    0.0000000000E+00    0.1312494885E+01
    4 2    0.0000000000E+00    0.9370516608E+00   -0.1881404074E+01
    5 2    0.0000000000E+00   -0.9370516608E+00   -0.1881404074E+01
    6 2    0.9370516608E+00    0.0000000000E+00    0.1881404074E+01
    7 2   -0.9370516608E+00    0.0000000000E+00    0.1881404074E+01
}

Hamiltonian = DFTB {
    
    SCC = Yes
    SCCTolerance = 1e-10 # Very tight for test purposes only
    
    MaxAngularMomentum = {
        C = "p"
        H = "s"
    }
    
    SlaterKosterFiles = Type2FileNames {
        Prefix = "./"
        Separator = "-"
        Suffix = ".skf"
    }
}

Options {
    WriteAutotestTag = Yes
}

ExcitedState {
    Casida {
        NrOfExcitations = 10
        StateOfInterest = 0
        Symmetry = Singlet
        OscillatorWindow = 1E-2
	WriteTransitionDipole = Yes
    }
}

ParserOptions {
    ParserVersion = 5
}

Parallel {
  # Allow OMP threads explicitely to test for hybrid parallelisation with
  # MPI-binary. (Check the manual before using this in production runs!)
  UseOmpThreads = Yes
}
