Geometry = GenFormat {
    18  S
    Si  H
    1 2      1.93027171      1.11444470      0.89681514
    2 1      1.93027362      1.11444226      2.41298961
    3 1      1.93027363     -1.11445262      3.15628416
    4 1      1.93027117     -1.11445666      5.51587359
    5 1      1.93027156     -1.11449169     22.06531473
    6 1      1.93027319     -1.11449591     24.42490411
    7 1     -0.00000475     -0.00005122     25.16819867
    8 2     -0.00000641     -0.00005046     26.68437310
    9 1     -0.00000763     -0.00001049      6.30426875
   10 1     -0.00000217     -0.00001450      8.66837669
   11 1      1.93027764      1.11442364      9.45640757
   12 1      1.93027149      1.11442509     11.82051467
   13 1      1.93027139     -1.11446935     12.60853601
   14 1      1.93027173     -1.11447071     14.97264339
   15 1     -0.00000766     -0.00003225     15.76067386
   16 1     -0.00000220     -0.00003626     18.12478152
   17 1      1.93027761      1.11440188     18.91281268
   18 1      1.93027146      1.11440333     21.27691949
   0.00000000      0.00000000      0.00000000
   1.93027789      3.34333938      0.00000000
   1.93027789     -3.34333938      0.00000000
   0.00000000      0.00000000    100.00000000
}

Driver = VelocityVerlet {
    Steps = 1
    TimeStep [Femtosecond] = 0.1
    Thermostat = Andersen {
        Temperature [Kelvin] = 273.15
        ReselectProbability = 0.2
        ReselectIndividually = Yes
    }
    MovedAtoms = 1:8  # subset of atoms moving
    Velocities [AA/ps] = {
        -26.18123912     -3.10448405    -27.57467249
          2.60008283      2.51982490      4.76166874
         -2.07640709     -1.38626924     -1.14544120
         -1.93473539      1.72362343     -2.01334725
          3.71807015     -0.67996868     -0.42035652
         -1.82095477     -1.09026213     -0.86437442
          0.76840815     -1.07834639      0.53451294
         -8.81640060      2.46648755      3.66552934
          0.00000000      0.00000000      0.00000000
          0.00000000      0.00000000      0.00000000
          0.00000000      0.00000000      0.00000000
          0.00000000      0.00000000      0.00000000
          0.00000000      0.00000000      0.00000000
          0.00000000      0.00000000      0.00000000
          0.00000000      0.00000000      0.00000000
          0.00000000      0.00000000      0.00000000
          0.00000000      0.00000000      0.00000000
          0.00000000      0.00000000      0.00000000
    }
    KeepStationary = Yes # sum of velocities maintained as 0
}

Hamiltonian = DFTB {
    SCC = No
    MaxAngularMomentum = {
        Si = "p"
        H = "s"
    }
    Filling = Fermi {
        Temperature [Kelvin] = 273.15
    }
    SlaterKosterFiles = Type2FileNames {
        Prefix = "./"
        Separator = "-"
        Suffix = ".skf"
    }
    KPointsAndWeights = SupercellFolding {
        6 0 0
        0 6 0
        0 0 1
        0.0 0.0 0.5
    }
}

Options = {
    WriteAutotestTag = No
    RandomSeed = 1
}

ParserOptions = {
    ParserVersion = 5
}

Parallel {
    # Allow OMP threads explicitely to test for hybrid parallelisation with
    # MPI-binary. (Check the manual before using this in production runs!)
    UseOmpThreads = Yes
}
