Geometry = GenFormat {
  14 C
  H C
       1   1  -1.3933360400E+00   1.0982639800E+00   5.7865110000E-02
       2   1  -1.4428643100E+00  -6.8360082000E-01   1.2644860000E-02
       3   2  -1.3674968000E+00   1.9728994000E-01   6.5386597000E-01
       4   2  -1.0056870500E+00   2.9993245000E-01   1.9458055600E+00
       5   1  -7.1394754000E-01  -1.8089534100E+00   2.4435615000E+00
       6   1  -1.0349411000E+00   1.2265542600E+00   2.4664517300E+00
       7   2  -5.9701833000E-01  -7.9325552000E-01   2.8907419900E+00
       8   2  -4.4712041000E-01  -7.2893132000E-01   4.2396494700E+00
       9   1  -5.8788343000E-01   1.4073174700E+00   4.8693770000E+00
      10   1  -2.4787280000E-01  -1.7215930100E+00   4.7132329800E+00
      11   2  -4.5739907000E-01   3.4643594000E-01   5.2335061900E+00
      12   2  -4.0005890000E-02   2.5067210000E-02   6.4688213100E+00
      13   1   3.0239251000E-01  -8.7618565000E-01   6.7703416600E+00
      14   1   1.7970000000E-03   6.9379527000E-01   7.2588090400E+00
}

Hamiltonian = DFTB {
  SCC = Yes
  SCCTolerance = 1e-6
  MaxSCCIterations = 1000
  Charge = 0.0
  SpinConstants = {
    ShellResolvedSpin = Yes
    H = { -0.072 }
    C = { -0.031 -0.025 -0.025 -0.023 }
  }
  RangeSeparated = LC{
    Screening = MatrixBased{}
  }
  MaxAngularMomentum = {
    H = "s"
    C = "p"
  }
  SlaterKosterFiles = {
    C-C = "C-C.skf"
    C-H = "C-H.skf"
    H-C = "H-C.skf"
    H-H = "H-H.skf"
  }
  ElectricField = PointCharges {
    CoordsAndCharges [Bohr] = DirectRead {
      Records = 1476
      File = "ext-charges.xyz"
    }
  }
}

Analysis {
  CalculateForces = Yes
}

Reks = SSR22 {
  Energy = {
    Functional = { "PPS" "OSS" }
    StateInteractions = Yes
  }
  TargetState = 2
  FonMaxIter = 30
  shift = 0.3
  Gradient = ConjugateGradient {
    CGmaxIter = 100
    Tolerance = 1.0E-8
    Preconditioner = Yes
    SaveMemory = Yes
  }
  NonAdiabaticCoupling = Yes
  VerbosityLevel = 1
}

Options {
  WriteAutotestTag = Yes
}

ParserOptions {
  ParserVersion = 8
}
