Geometry =  GenFormat {
4 C
H O
1 2 -0.147609 0.624826 0.159226  
1 1 0.807712 0.906870 0.103164   
1 2 0.147609 -0.624826 0.299226  
1 1 -0.807712 -0.886870 0.103164 
}
Driver = {}
    
Hamiltonian = DFTB {
  SCC = Yes
  SCCTolerance = 1.00E-10
  MaxAngularMomentum {
    H = "s"
    O = "p"
  }
  SlaterKosterFiles = Type2FileNames {
    Separator = "-"
    Suffix  = ".skf"
  }
  ThirdOrderFull = Yes
  HubbardDerivs {
    H = -0.16
    O = -0.17
  }
  #DampXH = Yes
  #DampXHExponent = 4.95
}

Options = {
  WriteAutotestTag = Yes
  CalculateForces = Yes
}

ParserOptions = {
  ParserVersion = 3
}

Parallel {
  # Allow OMP threads explicitely to test for hybrid parallelisation with
  # MPI-binary. (Check the manual before using this in production runs!)
  UseOmpThreads = Yes
}

