Geometry =  GenFormat {
      12  C
 C H
1  1  0.100001 1.089099 -0.000103 
1  1  -0.200001 -1.189099 -0.10010
1  1  -1.189099 -0.100001 0.100103 
1  1  1.189099 0.100001 0.100103   
1  2  0.000000 1.633666 0.794102   
1  2  0.000000 1.633164 -0.994663  
1  2  0.000000 -1.633666 0.794102  
1  2  0.000000 -1.833164 -0.794663 
1  2  -1.633666 0.000000 -0.794102 
1  2  -1.633164 0.000000 0.894663  
1  2  1.633666 0.000000 -0.794102  
1  2  1.633164 0.000000 0.9946631  
}
Driver = {}
    
Hamiltonian = DFTB {
  SCC = Yes
  SCCTolerance = 1.00E-10
  MaxAngularMomentum {
    H = "s"
    C = "p"
  }
  SlaterKosterFiles = Type2FileNames {
    Separator = "-"
    Suffix  = ".skf"
  }
  ThirdOrderFull = Yes
  HubbardDerivs {
    H = -0.16
    C = -0.16
  }
  #DampXH = Yes
  #DampXHExponent = 4.95
}

Options = {
  WriteAutotestTag = Yes
  CalculateForces = Yes
}

ParserOptions = {
  ParserVersion = 3
}

Parallel {
  # Allow OMP threads explicitely to test for hybrid parallelisation with
  # MPI-binary. (Check the manual before using this in production runs!)
  UseOmpThreads = Yes
}

