Geometry = GenFormat {
    <<< "butadiene.gen"
}

Driver = {}

Hamiltonian = DFTB {
    SCC = Yes
    SCCTolerance = 1e-10  # Very tight for test purposes only
    MaxAngularMomentum = {
        C = "p"
        H = "s"
    }
    SlaterKosterFiles = Type2FileNames {
        Prefix = "./"
        Separator = "-"
        Suffix = ".skf"
    }
    SpinConstants = {
        C = {-0.023} # HOMO Wpp
        H = {-0.072} # HOMO Wss
    }
    RangeSeparated = LC {Screening = MatrixBased {}}
}

Options {
    WriteAutotestTag = Yes
}

ParserOptions {
    ParserVersion = 9
}

ExcitedState {
    Casida {
        NrOfExcitations = 5
        StateOfInterest = 0
        Symmetry = Triplet
	Diagonaliser = Stratmann {SubSpaceFactor = 30}	
    }
}

Parallel {
  # Allow OMP threads explicitely to test for hybrid parallelisation with
  # MPI-binary. (Check the manual before using this in production runs!)
  UseOmpThreads = Yes
}

