Geometry = GenFormat {
 6  C
 C H
    1  1    0.1671004230E-10    0.7406909221E-07   -0.2570575045E+01
    2  1    0.1720704365E-10    0.8338571747E-08    0.2570575045E+01
    3  2   -0.1213372157E-10    0.8547173804E+00   -0.3284684423E+01
    4  2   -0.4645440406E-11   -0.8547174544E+00   -0.3284684157E+01
    5  2    0.4977327884E-10    0.8547174132E+00    0.3284684305E+01
    6  2   -0.6691120281E-10   -0.8547174216E+00    0.3284684275E+01
}

Hamiltonian = DFTB {
    MaxAngularMomentum = {
        C = "p"
        H = "s"
    }
    Filling = Fermi {
        Temperature [Kelvin] = 0.0
    }
    SlaterKosterFiles = Type2FileNames {
        Prefix = {slakos/origin/mio-1-1/}
        Separator = "-"
        Suffix = ".skf"
    }
}

Analysis = {
    CoordDerivatives = Yes
}

Options = {
    WriteAutotestTag = Yes
}

ParserOptions = {
    ParserVersion = 14
}

Parallel {
    # Allow OMP threads explicitely to test for hybrid parallelisation with
    # MPI-binary. (Check the manual before using this in production runs!)
    UseOmpThreads = Yes
}
