Geometry = GenFormat {
   12  C
  C  H
    1 1      0.00000000      0.41727209      1.34035331
    2 1      0.00000000      1.36277581      0.31264346
    3 1      0.00000000      0.94549248     -1.02003049
    4 1      0.00000000     -0.41727209     -1.32501204
    5 1      0.00000000     -1.36277581     -0.29730219
    6 1      0.00000000     -0.94549248      1.03537176
    7 2      0.00000000      0.74550740      2.38862741
    8 2      0.00000000      2.43471932      0.55254238
    9 2      0.00000000      1.68922144     -1.82842183
   10 2      0.00000000     -0.74550739     -2.37328614
   11 2      0.00000000     -2.43471932     -0.53720110
   12 2      0.00000000     -1.68922144      1.84376309
}

#Driver = ConjugateGRadient {
#  MaxForceComponent = 1.0E-8 # very tight tollerance.
#}

Driver = SecondDerivatives {}

Hamiltonian = DFTB {
  SCC = Yes
  SCCTolerance = 1.0E-10 # abnormally tight tollerance used for accuracy
  MaxAngularMomentum = {
    C = "p"
    H = "s"
  }
  Charge = 0.0
  Filling = Fermi {
    Temperature [Kelvin] = 273.15
  }
  SlaterKosterFiles = Type2FileNames {
    Separator = "-"
    Suffix = ".skf"
  }
}

Options = {
  WriteAutotestTag = Yes
}

ParserOptions = {
  ParserVersion = 3
}

Parallel {
  # Allow OMP threads explicitely to test for hybrid parallelisation with
  # MPI-binary. (Check the manual before using this in production runs!)
  UseOmpThreads = Yes
}

