Geometry = GenFormat {
5 C
O H
     1   1    3.8876254973730453E+00   -4.8775371915421566E+00   -2.2272609690180327E+00
     2   1    2.3746035101536540E+00   -5.6231268128969649E+00   -3.9836331048077911E+00
     3   2    3.1376971549748363E+00   -5.2609235037776756E+00   -3.1065501682615602E+00
     4   2    3.3006303639409169E+00   -4.6441901786653093E+00   -1.5095913449245713E+00
     5   2    2.3638368048678799E+00   -4.8895755354984249E+00   -4.5967040649847180E+00
}

Hamiltonian = DFTB {
  Charge = -1
  SCC = Yes
  SCCTolerance = 1.0E-9
  MaxSCCIterations = 300
  Filling = Fermi {
    Temperature = 0.0
  }
  Mixer = Broyden {}
  MaxAngularMomentum = {
    H = "s"
    O = "p"
  }

  ThirdOrderFull = Yes
  HubbardDerivs = {
    H = -0.1857
    O = -0.1575
  }

  Mdftb = OneCenterApproximation {
    AtomDIntegralScalings = {
      H = 0.0
      O = 0.2
    }
    AtomQIntegralScalings = {
      H = 0.0
      O = 3.0
    }
    OneCenterAtomIntegrals = {
      H:S|XX|S   = 0.55976
      O:S|X|Px   = 0.60894
      O:S|XX|S   = 0.45215
      O:Px|XX|Px = 0.83893
      O:Py|XX|Py = 0.27964
    }
  }

  SlaterKosterFiles = Type2Filenames {
    Prefix = {slakos/origin/m3ob-test/}
    Suffix = ".skf"
    Separator = "-"
  }
}

ParserOptions = {
  ParserVersion = 14
  IgnoreUnprocessedNodes = No
}

Analysis = {
  PrintForces = Yes
}

Options = {
  WriteAutotestTag = Yes
  WriteResultsTag = Yes
}
