Geometry = GenFormat {
  2  S
  O H
  1    1    0.00000000000E+00  -0.10000000000E+01   0.00000000000E+00
  2    2    0.00000000000E+00   0.00000000000E+00   0.78306400000E+00
  0.00000000000E+00   0.00000000000E+00   0.00000000000E+00
  0.50000000000E+01   0.00000000000E+00   0.00000000000E+00
  0.00000000000E+00   0.50000000000E+01   0.00000000000E+00
  0.00000000000E+00   0.00000000000E+00   0.50000000000E+01
}

Driver {}

Hamiltonian = DFTB {
  SCC = Yes
  SCCTolerance = 1.0E-10  # Very small!
  
  MaxAngularMomentum {
    O = "p"
    H = "s"
  }
  
  Charge = 0.0
  
  SpinPolarisation = Colinear {
    # Sligtly break spin symmetry
    UnpairedElectrons = 0.01 
    RelaxTotalSpin = Yes
  }
  
  SpinConstants {
    ShellResolvedSpin = Yes
    O {
      -0.030 -0.028
      -0.028 -0.026
    }
    
    H {
      -0.064
    }
  }
  
  Filling = Fermi {
    Temperature [Kelvin] = 1.0
  }
  
  SlaterKosterFiles = Type2FileNames {
    Separator = "-"
    Suffix = ".skf"
  }
  
  KPointsAndWeights {
    0.25 0.25 0.25 1.0
  }
  
}

Options {
  WriteAutotestTag = Yes
}

ParserOptions {
  ParserVersion = 5
}

Parallel {
  # Allow OMP threads explicitely to test for hybrid parallelisation with
  # MPI-binary. (Check the manual before using this in production runs!)
  UseOmpThreads = Yes
}

