Geometry = VaspFormat {
  <<< POSCAR_Primitive_Cell
}

Hamiltonian = DFTB {

  MaxSccIterations = 100
  SccTolerance = 1e-08

  Filling = Fermi {
    Temperature [K] = 0.0
  }

  MaxAngularMomentum = {
    Ga = "d"
    As = "d"
  }

  SlaterKosterFiles = Type2FileNames {
    Prefix = "slakos/origin/hybrid/lc/GaAs/"
    Separator = "-"
    Suffix = ".skf"
  }

  Hybrid = LC {
    CoulombMatrix = Truncated+Damping {
      CoulombCutoff = 0.703465E+01
      GSummationCutoff = 0.140693E+02
    }
    Screening = NeighbourBased {
      CutoffReduction = 17.0
      Threshold = 1e-100
    }
  }

  KPointsAndWeights = SupercellFolding {
     3   0   0
     0   3   0
     0   0   3
    0.0 0.0 0.0
  }

}

Analysis {
  PrintForces = No
}

Options {
  WriteAutotestTag = Yes
}

ParserOptions {
  ParserVersion = 14
}

Parallel {
  Groups = 2
  # Allow OMP threads explicitely to test for hybrid parallelisation with
  # MPI-binary. (Check the manual before using this in production runs!)
  UseOmpThreads = Yes
}
