Geometry = GenFormat {
    <<< "butadiene.gen"
}

Driver = {}

Hamiltonian = DFTB {
    SCC = Yes
    SCCTolerance = 1e-10  # Very tight for test purposes only
    MaxAngularMomentum = {
        C = "p"
        H = "s"
    }
    SlaterKosterFiles = Type2FileNames {
        Prefix = "slakos/origin/mio-1-1/"
        Separator = "-"
        Suffix = ".skf"
    }
    SpinConstants = {
        C = {-0.023} # HOMO Wpp
        H = {-0.072} # HOMO Wss
    }
}

Options {
    WriteAutotestTag = Yes
}

ParserOptions {
    ParserVersion = 10
}

ExcitedState {
    Casida {
        NrOfExcitations = 5
        StateOfInterest = 0
        Symmetry = Triplet
	Diagonaliser = Stratmann {
	  SubSpaceFactor = 30	 
	}
    }
}

Parallel {
  # Allow OMP threads explicitely to test for hybrid parallelisation with
  # MPI-binary. (Check the manual before using this in production runs!)
  UseOmpThreads = Yes
}

