Geometry = GenFormat {
  <<< "geo.gen"
}

Transport {
    Device {
      AtomRange = 1 4
    }
    Contact {
      Id = "source"
      AtomRange = 5 12
      PLShiftTolerance = 1e-6
    }
    Contact {
      Id = "drain"
      AtomRange = 13 20
      PLShiftTolerance = 1e-6
    }
  Task = ContactHamiltonian {
    ContactId = "drain"
  }
}

Hamiltonian = DFTB {
  SCC = Yes
  SCCTolerance = 1e-10
  MaxAngularMomentum = {
    Si = s
    H = s
  }
  Filling = Fermi {
    Temperature [Kelvin] = 300
  }
  SlaterKosterFiles = Type2Filenames {
    Separator = "-"
    Suffix = ".skf"
  }
  KPointsAndWeights = SupercellFolding {
    1 0 0
    0 1 0
    0 0 1000
    0.0 0.0 0.5
  }
  OldSKInterpolation = Yes
}

Parallel{
  # Reduce block size to allow multiple processors testing
  Blacs{BlockSize=2}  
  # Allow OMP threads explicitely to test for hybrid parallelisation with
  # MPI-binary. (Check the manual before using this in production runs!)
  UseOmpThreads = Yes
}

Options = {
  WriteAutotestTag = Yes
}

ParserOptions = {
  ParserVersion = 8
}
