Geometry = GenFormat {
40  S
 C
     1    1    0.57971786000E+02   0.57467691000E+02   0.24251230000E+01
     2    1    0.56318424000E+02   0.58807145000E+02   0.11971030000E+01
     3    1    0.54332211000E+02   0.59570642000E+02   0.24251230000E+01
     4    1    0.52207353000E+02   0.59682298000E+02   0.11971030000E+01
     5    1    0.50152028000E+02   0.59131213000E+02   0.24251230000E+01
     6    1    0.48367749000E+02   0.57971786000E+02   0.11971300000E+01
     7    1    0.47028295000E+02   0.56318424000E+02   0.24251500000E+01
     8    1    0.46264798000E+02   0.54332211000E+02   0.11971300000E+01
     9    1    0.46153142000E+02   0.52207353000E+02   0.24251500000E+01
    10    1    0.46704227000E+02   0.50152028000E+02   0.11971300000E+01
    11    1    0.47863654000E+02   0.48367749000E+02   0.24251230000E+01
    12    1    0.49517016000E+02   0.47028295000E+02   0.11971030000E+01
    13    1    0.51503229000E+02   0.46264798000E+02   0.24251230000E+01
    14    1    0.53628087000E+02   0.46153142000E+02   0.11971030000E+01
    15    1    0.55683412000E+02   0.46704227000E+02   0.24251230000E+01
    16    1    0.57467691000E+02   0.47863654000E+02   0.11971300000E+01
    17    1    0.58807145000E+02   0.49517016000E+02   0.24251500000E+01
    18    1    0.59570642000E+02   0.51503229000E+02   0.11971300000E+01
    19    1    0.59682298000E+02   0.53628087000E+02   0.24251500000E+01
    20    1    0.59131213000E+02   0.55683412000E+02   0.11971300000E+01
    21    1    0.58419258000E+02   0.56915336000E+02   0.11971030000E+01
    22    1    0.56914490000E+02   0.58419893000E+02   0.24251230000E+01
    23    1    0.55018871000E+02   0.59386488000E+02   0.11971030000E+01
    24    1    0.52917191000E+02   0.59719552000E+02   0.24251230000E+01
    25    1    0.50815616000E+02   0.59386170000E+02   0.11971030000E+01
    26    1    0.48920104000E+02   0.58419258000E+02   0.24251500000E+01
    27    1    0.47415547000E+02   0.56914490000E+02   0.11971300000E+01
    28    1    0.46448952000E+02   0.55018871000E+02   0.24251500000E+01
    29    1    0.46115888000E+02   0.52917191000E+02   0.11971300000E+01
    30    1    0.46449270000E+02   0.50815616000E+02   0.24251500000E+01
    31    1    0.47416182000E+02   0.48920104000E+02   0.11971030000E+01
    32    1    0.48920950000E+02   0.47415547000E+02   0.24251230000E+01
    33    1    0.50816569000E+02   0.46448952000E+02   0.11971030000E+01
    34    1    0.52918249000E+02   0.46115888000E+02   0.24251230000E+01
    35    1    0.55019824000E+02   0.46449270000E+02   0.11971030000E+01
    36    1    0.56915336000E+02   0.47416182000E+02   0.24251500000E+01
    37    1    0.58419893000E+02   0.48920950000E+02   0.11971300000E+01
    38    1    0.59386488000E+02   0.50816569000E+02   0.24251500000E+01
    39    1    0.59719552000E+02   0.52918249000E+02   0.11971300000E+01
    40    1    0.59386170000E+02   0.55019824000E+02   0.24251500000E+01
   0.00000000000E+00   0.00000000000E+00   0.00000000000E+00
   0.10583544000E+03   0.00000000000E+00   0.00000000000E+00
   0.00000000000E+00   0.10583544000E+03   0.00000000000E+00
   0.00000000000E+00   0.00000000000E+00   0.24560400000E+01
}
Driver = {}
Hamiltonian = DFTB {
  SCC = No
  MaxAngularMomentum = {
    C = "p"
  }
  Filling = Fermi {
    Temperature [Kelvin] = 0.000000000000000E+000
  }
  SlaterKosterFiles = {
    C-C = "./C-C.skf"
  }
  KPointsAndWeights = {
 0.000000000000000E+000 0.000000000000000E+000 0.000000000000000E+000 1.00000000000000
  }
}

Options = {
  MullikenAnalysis = Yes
  CalculateForces = Yes
  WriteAutotestTag = Yes
  AtomResolvedEnergies = Yes
}

ParserOptions = {
  ParserVersion = 3
}

Parallel {
  # Allow OMP threads explicitely to test for hybrid parallelisation with
  # MPI-binary. (Check the manual before using this in production runs!)
  UseOmpThreads = Yes
}

