Geometry = GenFormat {
    <<< "butadiene.gen"
}

Driver = {}

Hamiltonian = DFTB {
    SCC = Yes
    SCCTolerance = 1e-8
    MaxAngularMomentum = {
        C = "p"
        H = "s"
    }
    SlaterKosterFiles = Type2FileNames {
        Prefix = "slakos/origin/mio-1-1/"
        Separator = "-"
        Suffix = ".skf"
    }
}

ExcitedState {
    Casida {
        NrOfExcitations = 10
        StateOfInterest = 1
        Symmetry = Singlet
        WriteMulliken = Yes
        CacheCharges = No
        Diagonaliser = Stratmann {}
    }
}

Analysis {
    CalculateForces = Yes
}

Options {
    WriteAutotestTag = Yes
}

ParserOptions {
    ParserVersion = 10
}

Parallel {
  # Allow OMP threads explicitely to test for hybrid parallelisation with
  # MPI-binary. (Check the manual before using this in production runs!)
  UseOmpThreads = Yes
}

