Geometry = GenFormat {
 3  C
  O H
     1    1    0.00000000000E+00  -0.10000000000E+01   0.00000000000E+00
     2    2    0.00000000000E+00   0.00000000000E+00   0.78306400000E+00
     3    2    0.00000000000E+00   0.00000000000E+00  -0.78306400000E+00
}
Driver = {}

Hamiltonian = DFTB {
  SCC = Yes
  SCCTolerance = 1.000000000000000E-010
  MaxSCCIterations = 1000
  Mixer = Broyden {}
  MaxAngularMomentum = {
    O = "p"
    H = "s"
  }
  Filling = Fermi {
    Temperature [Kelvin] = 1.000000000000000E-008
  }
  SlaterKosterFiles = Type2FileNames {
    Separator = "-"
    Suffix = ".skf"
  }
  ElectricField = {
    PointCharges = {
      GaussianBlurWidth = 10.0
      CoordsAndCharges [Angstrom] = DirectRead {
        Records = 2
	File = "charges.dat"
      }
    }
    PointCharges = {
      GaussianBlurWidth = 0.0
      CoordsAndCharges = {
        -1.0 1.0 1.0   -2.1
         2.2 2.20 2.2    2.2
         3.3 3.3 3.3    3.0
      }
    } 
  }
}

Options = {
  WriteAutotestTag = Yes
  CalculateForces = Yes
}

ParserOptions = {
  ParserVersion = 3
}

Parallel {
  # Allow OMP threads explicitely to test for hybrid parallelisation with
  # MPI-binary. (Check the manual before using this in production runs!)
  UseOmpThreads = Yes
}

