Geometry = xyzFormat {
 <<< "struc.xyz"
}

Driver {}

Hamiltonian = DFTB {
  Solvation = GeneralizedBorn { # GFN1-xTB/GBSA(CS2)
    Solvent = fromConstants {
      Epsilon = 2.64  # Dielectric constant of the solvent
      MolecularMass = 76.14  # mass of the solvent molecule
      Density = 1.26  # mol density of the solvent
    }
    # temperature = 298.15
    # state = "gsolv"
    Kernel = "P16"
    FreeEnergyShift [kcal/mol] = 3.37941625
    Radii = vanDerWaalsRadiiD3 {}
    Descreening = values {
       H = 0.97012484
       C = 0.88983137
       O = 1.05601217
    }
    CM5 {}
    BornScale = 1.18273365
    BornOffset = 1.517063677302E-02
    OBCCorrection = {1.00 0.80 4.85}
    Cutoff = 30
  }
  SCC = Yes
  SccTolerance = 1e-10
  MaxAngularMomentum {
    H = "s"
    O = "p"
    C = "p"
  }
  Charge = -1
  SlaterKosterFiles = Type2FileNames {
    Separator = "-"
    Suffix = ".skf"
  }
}

Options {
  WriteAutotestTag = Yes
}

Analysis {
  CalculateForces = Yes
}

ParserOptions {
  ParserVersion = 8
}

Parallel {
  UseOmpThreads = Yes
}
