Geometry = GenFormat {
2  S
 Si
     1    1    0.00000000000E+00   0.00000000000E+00   0.00000000000E+00
     2    1    0.13567730000E+01   0.13567730000E+01   0.13567730000E+01
   0.00000000000E+00   0.00000000000E+00   0.00000000000E+00
   0.27135460000E+01   0.27135460000E+01   0.00000000000E+00
   0.00000000000E+00   0.27135460000E+01   0.27135460000E+01
   0.27135460000E+01   0.00000000000E+00   0.27135460000E+01
}
Driver {}
Hamiltonian = DFTB {
  ASI {}
  Scc = Yes
  MaxAngularMomentum = {
    Si = "p"
  }
  Charge = 0.0
  Filling = Fermi {
    Temperature [Kelvin] = 1.0E-008
  }
  SlaterKosterFiles = {
    Si-Si = "./Si-Si.skf"
  }
  KPointsAndWeights = {
  0.25  0.25 0.25 1.0
 -0.25  0.25 0.25 1.0
  0.25 -0.25 0.25 1.0
 -0.25 -0.25 0.25 1.0
  }
}

Options {
  WriteAutotestTag = Yes
}

Analysis {
  PrintForces = Yes
  MullikenAnalysis = Yes
  AtomResolvedEnergies = Yes
}

ParserOptions = {
  ParserVersion = 14
}

Parallel {
  # Allow OMP threads explicitely to test for hybrid parallelisation with
  # MPI-binary. (Check the manual before using this in production runs!)
  UseOmpThreads = Yes
}
