Geometry = GenFormat {
    3  C
    O H
    1    1    0.00000000000  -1.00000000000   0.00000000000
    2    2    0.00000000000   0.00000000000   0.78306400000
    3    2    0.00000000000   0.00000000000  -0.78306400000
}

Driver = {}

Hamiltonian = DFTB {
    SCC = Yes
    SCCTolerance = 1.0E-10
    MaxAngularMomentum = {
        O = "p"
        H = "s"
    }
    Filling = Fermi {
    Temperature [Kelvin] = 100
    }
    SlaterKosterFiles = Type2FileNames {
        Separator = "-"
        Suffix = ".skf"
    }
    ElectricField = {
        PointCharges = {
            GaussianBlurWidth = 0.5
            CoordsAndCharges [AA] = { # quadrupole pattern
                0 -1   1  .1
                0 -1  -1 -.1
                0  1   1 -.1
                0  1  -1  .1
            }
        }
        External = {
            Direction = 0.0 1.0 0.0
            Strength [v/m] = -4.50536095E10
        }
    }
}

Analysis = {
  CalculateForces = Yes
  AtomResolvedEnergies = Yes
  ElectrostaticPotential = {
      Softening = 0.1
      Grid [AA] = {
          Spacing = {.1 .1 .1}
          Origin = {0 -2 -2}
          GridPoints = {1 41 41}
      }
  }
}

Options = {
    WriteAutotestTag = Yes
}

ParserOptions = {
    ParserVersion = 5
}
