Geometry = GenFormat {
    <<< geo.gen
}

Hamiltonian = DFTB {
    SCC = Yes
    SCCTolerance = 1.0E-8  # Extremely small
    MaxAngularMomentum = {
        H = "s"
        C = "p"
    }
    SlaterKosterFiles = Type2FileNames {
      Prefix = "slakos/origin/ob2-1-1/shift/"
      Separator = "-"
      Suffix = ".skf"
    }
    SpinPolarisation = Colinear {
        UnpairedElectrons = 1
    }
    SpinConstants = {
        C = {
     	      -0.04559
              -0.02930
              -0.02930
              -0.02755
        }
        H = {-0.07925}
        ShellResolvedSpin = Yes
    }
    RangeSeparated = LC {
      Screening = MatrixBased {}
    }
}

Options = {
    WriteAutotestTag = Yes
}

Analysis {
    CalculateForces = No
}

ParserOptions = {
    ParserVersion = 6
}

Parallel {
  # Allow OMP threads explicitely to test for hybrid parallelisation with
  # MPI-binary. (Check the manual before using this in production runs!)
  UseOmpThreads = Yes
}
