 Geometry = GenFormat { #graphene nanorribbon
  24 S 
  C H
     1   1   5.0000000000E+00   5.0000000000E+00   2.8417200000E+00
     2   1   5.0000000000E+00   6.2305010000E+00   3.5521500000E+00
     3   1   5.0000000000E+00   5.0000000000E+00   1.4208600000E+00
     4   1   5.0000000000E+00   7.4610020000E+00   2.8417200000E+00
     5   1   5.0000000000E+00   8.6915030000E+00   3.5521500000E+00
     6   1   5.0000000000E+00   6.2305010000E+00   7.1043000000E-01
     7   1   5.0000000000E+00   7.4610020000E+00   1.4208600000E+00
     8   1   5.0000000000E+00   9.9220030000E+00   2.8417200000E+00
     9   1   5.0000000000E+00   1.1152500000E+01   3.5521500000E+00
    10   1   5.0000000000E+00   8.6915030000E+00   7.1043000000E-01
    11   1   5.0000000000E+00   9.9220030000E+00   1.4208600000E+00
    12   1   5.0000000000E+00   1.2383010000E+01   2.8417200000E+00
    13   1   5.0000000000E+00   1.3613510000E+01   3.5521500000E+00
    14   1   5.0000000000E+00   1.1152500000E+01   7.1043000000E-01
    15   1   5.0000000000E+00   1.2383010000E+01   1.4208600000E+00
    16   1   5.0000000000E+00   1.4844010000E+01   2.8417200000E+00
    17   1   5.0000000000E+00   1.6074510000E+01   3.5521500000E+00
    18   1   5.0000000000E+00   1.3613510000E+01   7.1043000000E-01
    19   1   5.0000000000E+00   1.4844010000E+01   1.4208600000E+00
    20   1   5.0000000000E+00   1.6074510000E+01   7.1043000000E-01
    21   2   5.0000000000E+00   4.0560320000E+00   3.3867200000E+00
    22   2   5.0000000000E+00   4.0560320000E+00   8.7586000000E-01
    23   2   5.0000000000E+00   1.7018480000E+01   3.0071500000E+00
    24   2   5.0000000000E+00   1.7018480000E+01   1.2554300000E+00
  0.0    0.0    0.0
  100.0  0.0    0.0
  0.0    100.0  0.0  
  0.0    0.0    4.26258
 }
 Driver = {}
 Hamiltonian = DFTB {
   SCC = Yes 
   SCCTolerance = 1.0e-10
   MaxAngularMomentum = {
     C = "p"
     H = "s"
   }
   SlaterKosterFiles = Type2FileNames {
       Separator = "-"
       Suffix = ".skf"
   }   
   KPointsAndWeights = {
     0.0 0.0 0.0 1.0
   }
   Charge = 0.0
   Filling = Fermi {
     Temperature [k] = 273.15 
   }
 }
 
 Options = {
   WriteAutotestTag = Yes 
 }
 
InputVersion = 20.1
 
 ElectronDynamics = {
   Steps = 1000
   TimeStep [au] = 0.2
   FieldStrength [v/a] = 0.01
   Perturbation = Laser {
     PolarizationDirection = 0 1 0 
     LaserEnergy [ev] = 3.802
   } 
 }

 Parallel {
  # Allow OMP threads explicitely to test for hybrid parallelisation with
  # MPI-binary. (Check the manual before using this in production runs!)
  UseOmpThreads = Yes
  # Due to small size of problem, allow 2 MPI processors by shrinking blocks
  Blacs = BlockSize {
    16
  }
 }
