Geometry = GenFormat {
64  S
 Si C
     1    1    0.00000000000E+00   0.00000000000E+00   0.00000000000E+00
     2    1    0.21708370000E+01   0.00000000000E+00   0.21708370000E+01
     3    1    0.21708370000E+01  -0.21708370000E+01   0.00000000000E+00
     4    1    0.00000000000E+00  -0.21708370000E+01   0.21708370000E+01
     5    1    0.21708370000E+01   0.21708370000E+01   0.00000000000E+00
     6    1    0.21708370000E+01   0.00000000000E+00  -0.21708370000E+01
     7    1    0.00000000000E+00   0.21708370000E+01   0.21708370000E+01
     8    1    0.00000000000E+00  -0.21708370000E+01  -0.21708370000E+01
     9    1   -0.21708370000E+01   0.00000000000E+00   0.21708370000E+01
    10    1   -0.21708370000E+01  -0.21708370000E+01   0.00000000000E+00
    11    1    0.00000000000E+00   0.21708370000E+01  -0.21708370000E+01
    12    1   -0.21708370000E+01   0.21708370000E+01   0.00000000000E+00
    13    1   -0.21708370000E+01   0.00000000000E+00  -0.21708370000E+01
    14    1    0.00000000000E+00   0.00000000000E+00   0.43416740000E+01
    15    1    0.43416740000E+01   0.00000000000E+00   0.00000000000E+00
    16    1    0.00000000000E+00  -0.43416740000E+01   0.00000000000E+00
    17    1   -0.21708370000E+01  -0.43416740000E+01  -0.21708370000E+01
    18    1    0.21708370000E+01   0.21708370000E+01   0.43416740000E+01
    19    1    0.43416740000E+01   0.21708370000E+01   0.21708370000E+01
    20    1    0.21708370000E+01   0.43416740000E+01   0.21708370000E+01
    21    1   -0.21708370000E+01  -0.21708370000E+01  -0.43416740000E+01
    22    1   -0.43416740000E+01  -0.21708370000E+01  -0.21708370000E+01
    23    1   -0.43416740000E+01  -0.21708370000E+01   0.21708370000E+01
    24    1    0.21708370000E+01  -0.21708370000E+01   0.43416740000E+01
    25    1    0.21708370000E+01  -0.43416740000E+01  -0.21708370000E+01
    26    1   -0.21708370000E+01  -0.43416740000E+01   0.21708370000E+01
    27    1    0.43416740000E+01   0.21708370000E+01  -0.21708370000E+01
    28    1   -0.21708370000E+01   0.21708370000E+01   0.43416740000E+01
    29    1    0.43416740000E+01   0.00000000000E+00   0.43416740000E+01
    30    1    0.00000000000E+00   0.43416740000E+01   0.43416740000E+01
    31    1    0.43416740000E+01   0.43416740000E+01   0.00000000000E+00
    32    1    0.43416740000E+01   0.43416740000E+01   0.43416740000E+01
    33    2    0.10854190000E+01   0.10854190000E+01   0.10854190000E+01
    34    2    0.10854190000E+01  -0.10854190000E+01  -0.10854190000E+01
    35    2   -0.10854190000E+01  -0.10854190000E+01   0.10854190000E+01
    36    2   -0.10854190000E+01   0.10854190000E+01  -0.10854190000E+01
    37    2    0.32562550000E+01   0.10854190000E+01  -0.10854190000E+01
    38    2    0.32562550000E+01  -0.10854190000E+01   0.10854190000E+01
    39    2   -0.10854190000E+01   0.10854190000E+01   0.32562550000E+01
    40    2    0.10854190000E+01  -0.10854190000E+01   0.32562550000E+01
    41    2   -0.10854190000E+01  -0.32562550000E+01  -0.10854190000E+01
    42    2    0.10854190000E+01   0.32562550000E+01  -0.10854190000E+01
    43    2    0.10854190000E+01   0.10854190000E+01  -0.32562550000E+01
    44    2   -0.10854190000E+01   0.32562550000E+01   0.10854190000E+01
    45    2    0.10854190000E+01  -0.32562550000E+01   0.10854190000E+01
    46    2   -0.10854190000E+01  -0.10854190000E+01  -0.32562550000E+01
    47    2   -0.32562550000E+01   0.10854190000E+01   0.10854190000E+01
    48    2   -0.32562550000E+01  -0.10854190000E+01  -0.10854190000E+01
    49    2    0.10854190000E+01   0.32562550000E+01   0.32562550000E+01
    50    2    0.32562550000E+01   0.32562550000E+01   0.10854190000E+01
    51    2    0.32562550000E+01   0.10854190000E+01   0.32562550000E+01
    52    2    0.32562550000E+01  -0.32562550000E+01  -0.10854190000E+01
    53    2   -0.10854190000E+01  -0.32562550000E+01   0.32562550000E+01
    54    2    0.32562550000E+01  -0.10854190000E+01  -0.32562550000E+01
    55    2    0.10854190000E+01  -0.32562550000E+01  -0.32562550000E+01
    56    2   -0.32562550000E+01  -0.10854190000E+01   0.32562550000E+01
    57    2   -0.32562550000E+01  -0.32562550000E+01   0.10854190000E+01
    58    2   -0.10854190000E+01   0.32562550000E+01  -0.32562550000E+01
    59    2   -0.32562550000E+01   0.32562550000E+01  -0.10854190000E+01
    60    2   -0.32562550000E+01   0.10854190000E+01  -0.32562550000E+01
    61    2   -0.32562550000E+01   0.32562550000E+01   0.32562550000E+01
    62    2   -0.32562550000E+01  -0.32562550000E+01  -0.32562550000E+01
    63    2    0.32562550000E+01  -0.32562550000E+01   0.32562550000E+01
    64    2    0.32562550000E+01   0.32562550000E+01  -0.32562550000E+01
   0.00000000000E+00   0.00000000000E+00   0.00000000000E+00
   0.86833480000E+01   0.00000000000E+00   0.00000000000E+00
   0.00000000000E+00   0.86833480000E+01   0.00000000000E+00
   0.00000000000E+00   0.00000000000E+00   0.86833480000E+01
}

Driver = VelocityVerlet {
  XlbomdFast {
    PreSteps = 0
    TransientSteps = 10
    IntegrationSteps = 5
    Scale = 0.25         
  }
  TimeStep [fs] = 1.0
  Thermostat = None {}
  Velocities [AA/ps] {
        3.92790034     -1.40947654      4.22200983
       -5.74201080     -3.52429550     -1.81046007
        6.05691138     -4.06727432      6.86124814
        1.61416131     -1.09679915     -4.91800474
        6.68235789      7.38008888      1.37658459
        6.77616022     -4.04370044     -5.04154478
       -3.09560639     -7.86347520     -0.59491724
        1.46467777     -4.12343446     -6.37351689
       -8.35517689      0.80690344      4.00722266
        1.29362992      1.84331115     -2.94472261
       -2.26540866      4.12265439     -0.41669535
       -1.37712323     -1.18918849     -6.77936257
       -6.01212669     -1.37064562     -1.07094314
        3.08862241      2.31943662     -6.03212916
        4.70561611     -3.06102940     -1.36832316
       -1.89537187      0.20795922      0.54572167
        1.64701143      8.74818069      1.73249289
        3.96287207      0.04390799     -4.43401557
        0.67205145      2.24832729      2.95338898
       -1.90986203     -2.53973646      6.94184670
       -4.58444112     -4.29555391     -1.86480311
        3.85004815      0.32571095      0.68418384
       -0.41763073     -4.29209041      2.87362929
       -1.35818459      5.07533526      2.81119991
        2.42270832      3.49074350      1.06686106
        3.77083852     -1.16117688     -1.52095129
        5.43941339     -4.63380890      2.32666692
        5.41140932      2.02030068      1.13503886
        0.32954375      2.60830071      0.92943726
       -3.79628568      1.23844325     -0.64850238
        1.05035608      6.40336112     -3.86080905
       -5.52372753     -3.42959535      7.11462839
        8.07356822      1.51279314      1.19767443
        6.44254146      0.52782855     -0.12890045
       -4.38837278     -0.81928104     11.23573259
        2.37516952     -1.00738898      2.46416868
       -8.40817661     -5.45164291     -2.39054661
       -2.41511375      0.82795166      1.22202149
       -8.00213740      2.08594107      6.30178611
        5.79313681      0.36615386     -0.42333465
       -2.14581158     -2.35310625      1.61612653
       -0.07877751      9.32508477      3.39001181
        0.32823667      0.03978114     -4.75209364
       -6.41151663     -1.11018213     -8.32176705
       -3.07302300     -9.38253475     -5.89390017
       -7.36263824      1.81373830    -16.89217482
       -1.39077356      1.60933314     -1.29405287
        4.24249314     -4.37048928      0.28858846
        1.87075940     -5.96277901     -2.28773302
       -5.11191882      2.82813210     -8.54954078
       -8.24451848      1.25095435     -9.12355886
       -1.73527665     -0.67474571      1.62341257
      -10.72343738     -0.69550741     -0.41929611
        6.44962784      1.14235657      0.72795523
       -2.41460795     -4.45521434      0.71169830
       -1.92372756      4.56651120      2.30116703
       -1.90926151     -4.01506755     -1.28679538
        6.18856561      4.18430260     -0.23087132
       -0.83410783      0.18714268      8.42339974
        1.67482923     -0.32130279      2.68825423
        5.50869386     11.87940699      9.71292791
       -5.00184659     -1.69704327      4.54874257
       -7.43976846      7.83977573      4.11201501
       -1.63697336     -2.14470591      4.33408806
  }
  Steps = 50
  MovedAtoms = 1:-1
}

Hamiltonian = DFTB {
  ForceEvaluation = 'DynamicsT0'
  SCC = Yes
  SCCTolerance = 1e-6
  MaxSCCIterations = 1000
  MaxAngularMomentum = {
    Si = "p"
    C = "p"
  }
  SlaterKosterFiles = {
    Si-Si = "./Si-Si.skf"
    Si-C = "./Si-C.skf"
    C-Si = "./C-Si.skf"
    C-C = "./C-C.skf"
  }

KPointsAndWeights = {
   0.000000000000E+000 0.000000000000E+000 0.000000000000E+000   1.00000000000
  }
}

Options = {
  WriteAutotestTag = Yes
  RandomSeed = 3871905
}

ParserOptions = {
  ParserVersion = 5
}

Parallel {
  # Allow OMP threads explicitely to test for hybrid parallelisation with
  # MPI-binary. (Check the manual before using this in production runs!)
  UseOmpThreads = Yes
}

