Geometry = GenFormat {
 2  C
 H
    1  1   0.0000000000E+00   0.0000000000E+00   0.0000000000E+00
    2  1   0.0000000000E+00   0.0000000000E+00   0.8000000000E+00
}

Hamiltonian = DFTB {
  Scc = Yes
  SlaterKosterFiles = Type2FileNames {
    Prefix = "slakos/origin/mio-1-1/"
    Separator = "-"
    Suffix = ".skf"
  }
  MaxAngularMomentum {
    H = "s"
  }
}

Options {
  WriteDetailedOut = No
}

Analysis {
  WriteBandOut = No
}

ParserOptions {
  WriteHsdInput = No
  ParserVersion = 12
}

Parallel {
  # Allow OMP threads explicitely to test for hybrid parallelisation with
  # MPI-binary. (Check the manual before using this in production runs!)
  UseOmpThreads = Yes
}
