Geometry = GenFormat {
5 C
O H
1   1   1.2138430000E+00   9.5199000000E-02  -5.9430000000E-02
2   1  -1.2138570000E+00  -9.5209000000E-02  -5.9416000000E-02
3   2   4.5000000000E-05  -1.1000000000E-05  -7.1942000000E-02
4   2   1.4948610000E+00  -6.1842600000E-01   5.1138700000E-01
5   2  -1.4947950000E+00   6.1851300000E-01   5.1132400000E-01
}

Hamiltonian = DFTB {
  Charge = -1
  SCC = Yes
  SCCTolerance = 1.0E-9
  MaxSCCIterations = 300
  Filling = Fermi {
    Temperature = 0.0
  }
  Mixer = Broyden {}
  MaxAngularMomentum = {
    H = "s"
    C = "p"
    N = "p"
    O = "p"
  }

  ThirdOrderFull = Yes
  HubbardDerivs = {
    H = -0.1857
    C = -0.1492
    N = -0.1535
    O = -0.1575
  }

  Multipole = OneCenterApproximation {
    AtomDIntergralScalings = {
      H = 0.0
      C = 0.8
      N = 0.6
      O = 0.2
    }
    AtomQIntergralScalings = {
      H = 0.0
      C = 2.6
      N = 3.4
      O = 3.0
    }
    OneCenterAtomIntergrals = {
      H:S_XX_S   = 0.559763113574278
      C:S_X_Px   = 0.796211024997751
      C:S_XX_S   = 0.766888106831445
      C:Px_XX_Px = 1.385502638579228
      C:Py_XX_Py = 0.461834212859743
      N:S_X_Px   = 0.688568319516854
      N:S_XX_S   = 0.576377978998475
      N:Px_XX_Px = 1.053083135080823
      N:Py_XX_Py = 0.351027711693608
      O:S_X_Px   = 0.608943777618081
      O:S_XX_S   = 0.452148337809063
      O:Px_XX_Px = 0.838929210584501
      O:Py_XX_Py = 0.279643070194834
    }
  }

  SlaterKosterFiles = Type2Filenames {
    Suffix = ".skf"
    Separator = "-"
  }
}

ParserOptions = {
  ParserVersion = 8
  IgnoreUnprocessedNodes = Yes
}

Analysis = {
  CalculateForces = Yes
}

Options = {
  WriteAutotestTag = Yes
  WriteResultsTag = Yes
}
