Geometry = GenFormat {
12 S
 C O
    1    1    0.00000000000000E+00    0.00000000000000E+00    0.00000000000000E+00
    2    1    2.89520000000000E+00    0.00000000000000E+00    2.89520000000000E+00
    3    1    2.89520000000000E+00    2.89520000000000E+00    0.00000000000000E+00
    4    1    0.00000000000000E+00    2.89520000000000E+00    2.89520000000000E+00
    5    2    6.74499999999998E-01    6.74499999999998E-01    6.74499999999998E-01
    6    2    3.56960000000000E+00    6.74499999999998E-01    2.22070000000000E+00
    7    2    3.56960000000000E+00    2.22070000000000E+00    5.11590000000000E+00
    8    2    5.11590000000000E+00    3.56960000000000E+00    2.22070000000000E+00
    9    2    5.11590000000000E+00    5.11590000000000E+00    5.11590000000000E+00
   10    2    2.22070000000000E+00    5.11590000000000E+00    3.56960000000000E+00
   11    2    2.22070000000000E+00    3.56960000000000E+00    6.74499999999998E-01
   12    2    6.74499999999998E-01    2.22070000000000E+00    3.56960000000000E+00
    0.00000000000000    0.00000000000000    0.00000000000000
    5.79034530000000    0.00000000000000    0.00000000000000
    0.00000000000000    5.79034530000000    0.00000000000000
    0.00000000000000    0.00000000000000    5.79034530000000
}

Driver = GeometryOptimization {
  Optimizer = Rational {}
  Filter = Cartesian { LatticeOpt = Yes }
  Accuracy = 0.5
  MaxSteps = 100
  OutputPrefix = "geom.out"
}

Hamiltonian = xTB {
  Method = "GFN1-xTB"
  SCC = Yes
  SCCTolerance = 1.0E-10
  kPointsAndWeights = SuperCellFolding {
    2   0   0
    0   2   0
    0   0   2
    0.5 0.5 0.5
  }
}

Options = { WriteAutotestTag = Yes }
ParserOptions = { ParserVersion = 9 }
Parallel { UseOmpThreads = Yes }
