Geometry = GenFormat {
    60  C
    C
    1 1    0.3488128929E+01    0.7036995152E+00   -0.1914986726E-11
    2 1    0.3488128929E+01   -0.7036995152E+00    0.2641868206E-11
    3 1   -0.3488128929E+01    0.7036995152E+00   -0.3584159512E-11
    4 1   -0.3488128929E+01   -0.7036995152E+00    0.3526427566E-11
    5 1    0.7036995152E+00   -0.1391340173E-11    0.3488128929E+01
    6 1   -0.7036995152E+00    0.1317115262E-11    0.3488128929E+01
    7 1    0.7036995152E+00    0.3407008160E-11   -0.3488128929E+01
    8 1   -0.7036995152E+00   -0.2460425850E-11   -0.3488128929E+01
    9 1   -0.2587826372E-11    0.3488128929E+01    0.7036995152E+00
   10 1    0.6868887703E-12    0.3488128929E+01   -0.7036995152E+00
   11 1    0.3094141835E-11   -0.3488128929E+01    0.7036995152E+00
   12 1   -0.9694067653E-12   -0.3488128929E+01   -0.7036995152E+00
   13 1    0.3039410691E+01    0.1429740875E+01    0.1174759596E+01
   14 1    0.3039410691E+01    0.1429740875E+01   -0.1174759596E+01
   15 1    0.3039410691E+01   -0.1429740875E+01    0.1174759596E+01
   16 1    0.3039410691E+01   -0.1429740875E+01   -0.1174759596E+01
   17 1   -0.3039410691E+01    0.1429740875E+01    0.1174759596E+01
   18 1   -0.3039410691E+01    0.1429740875E+01   -0.1174759596E+01
   19 1   -0.3039410691E+01   -0.1429740875E+01    0.1174759596E+01
   20 1   -0.3039410691E+01   -0.1429740875E+01   -0.1174759596E+01
   21 1    0.1429740875E+01    0.1174759596E+01    0.3039410691E+01
   22 1    0.1429740875E+01   -0.1174759596E+01    0.3039410691E+01
   23 1   -0.1429740875E+01    0.1174759596E+01    0.3039410691E+01
   24 1   -0.1429740875E+01   -0.1174759596E+01    0.3039410691E+01
   25 1    0.1429740875E+01    0.1174759596E+01   -0.3039410691E+01
   26 1    0.1429740875E+01   -0.1174759596E+01   -0.3039410691E+01
   27 1   -0.1429740875E+01    0.1174759596E+01   -0.3039410691E+01
   28 1   -0.1429740875E+01   -0.1174759596E+01   -0.3039410691E+01
   29 1    0.1174759596E+01    0.3039410691E+01    0.1429740875E+01
   30 1   -0.1174759596E+01    0.3039410691E+01    0.1429740875E+01
   31 1    0.1174759596E+01    0.3039410691E+01   -0.1429740875E+01
   32 1   -0.1174759596E+01    0.3039410691E+01   -0.1429740875E+01
   33 1    0.1174759596E+01   -0.3039410691E+01    0.1429740875E+01
   34 1   -0.1174759596E+01   -0.3039410691E+01    0.1429740875E+01
   35 1    0.1174759596E+01   -0.3039410691E+01   -0.1429740875E+01
   36 1   -0.1174759596E+01   -0.3039410691E+01   -0.1429740875E+01
   37 1    0.2604500469E+01    0.7260413580E+00    0.2313369328E+01
   38 1    0.2604500469E+01    0.7260413580E+00   -0.2313369328E+01
   39 1    0.2604500469E+01   -0.7260413580E+00    0.2313369328E+01
   40 1    0.2604500469E+01   -0.7260413580E+00   -0.2313369328E+01
   41 1   -0.2604500469E+01    0.7260413580E+00    0.2313369328E+01
   42 1   -0.2604500469E+01    0.7260413580E+00   -0.2313369328E+01
   43 1   -0.2604500469E+01   -0.7260413580E+00    0.2313369328E+01
   44 1   -0.2604500469E+01   -0.7260413580E+00   -0.2313369328E+01
   45 1    0.7260413580E+00    0.2313369328E+01    0.2604500469E+01
   46 1    0.7260413580E+00   -0.2313369328E+01    0.2604500469E+01
   47 1   -0.7260413580E+00    0.2313369328E+01    0.2604500469E+01
   48 1   -0.7260413580E+00   -0.2313369328E+01    0.2604500469E+01
   49 1    0.7260413580E+00    0.2313369328E+01   -0.2604500469E+01
   50 1    0.7260413580E+00   -0.2313369328E+01   -0.2604500469E+01
   51 1   -0.7260413580E+00    0.2313369328E+01   -0.2604500469E+01
   52 1   -0.7260413580E+00   -0.2313369328E+01   -0.2604500469E+01
   53 1    0.2313369328E+01    0.2604500469E+01    0.7260413580E+00
   54 1   -0.2313369328E+01    0.2604500469E+01    0.7260413580E+00
   55 1    0.2313369328E+01    0.2604500469E+01   -0.7260413580E+00
   56 1   -0.2313369328E+01    0.2604500469E+01   -0.7260413580E+00
   57 1    0.2313369328E+01   -0.2604500469E+01    0.7260413580E+00
   58 1   -0.2313369328E+01   -0.2604500469E+01    0.7260413580E+00
   59 1    0.2313369328E+01   -0.2604500469E+01   -0.7260413580E+00
   60 1   -0.2313369328E+01   -0.2604500469E+01   -0.7260413580E+00
}

Hamiltonian = DFTB {
    SCC = Yes
    SCCTolerance = 1.0E-10
    MaxAngularMomentum = {
        C = "p"
    }
    Filling = Fermi {
        Temperature [Kelvin] = 100.000000000000
    }
    SlaterKosterFiles = {
        C-C = "C-C.skf"
    }
}

ExcitedState {
    Casida {
        NrOfExcitations = 20
        StateOfInterest = -1
        Symmetry = Singlet
        OscillatorWindow = 5.0E-3
    }
}

Options = {
    WriteAutotestTag = Yes
}

ParserOptions = {
    ParserVersion = 5
}

Parallel {
  # Allow OMP threads explicitely to test for hybrid parallelisation with
  # MPI-binary. (Check the manual before using this in production runs!)
  UseOmpThreads = Yes
}

