Geometry = GenFormat {
    <<< "h-sheet.gen"
}

Transport {
    Device {
        AtomRange = 1 48
        FirstLayerAtoms = 1 9 17 25 33 41
    }
    Contact {
        Id = "bulk"
        AtomRange = 49  64
        FermiLevel [eV] = -4.4504575
        Potential [eV] = 0.0
    }
}

Hamiltonian = DFTB {
    SCC = Yes
    SccTolerance = 1E-6
    ReadInitialCharges = Yes
    MaxSccIterations = 100
    MaxAngularMomentum = {
        H = s
    }

    Filling = Fermi {
        Temperature [K] = 0
    }

    KPointsAndWeights =  SupercellFolding {
        1 0 0
        0 16 0
        0 0 1
        0.0 0.5 0.5
    }

    Electrostatics = Poisson {
        MinimalGrid [Angstrom] = 0.3 0.2 0.3
        AtomDensityCutoff [Angstrom] = 2.000
        SavePotential = Yes
        PoissonAccuracy = 1e-7
        BuildBulkPotential = No
        PoissonThickness [AA] = 30
    }

    SlaterKosterFiles = {
        H-H = "H-H-noS.skf"
    }

    Solver = GreensFunction {
        Verbosity = 51
        ContourPoints = 50 50
        RealAxisPoints = 100
        LowestEnergy [eV] = -60.0
    }
}

Parallel = {
    # Allow OMP threads explicitely to test for hybrid parallelisation with
    # MPI-binary. (Check the manual before using this in production runs!)
    UseOmpThreads = Yes
}

Options = {
    WriteAutoTestTag = Yes
    ReadChargesAsText = Yes
}

ParserOptions = {
    ParserVersion = 7
}
