Geometry = GenFormat {
32  S
 Si O
     1    1    0.12324695100E+01   0.12324679900E+01   0.14965462300E+01
     2    1    0.10145296000E+01  -0.10145285200E+01  -0.14506677300E+01
     3    1   -0.12324675500E+01  -0.12324697000E+01   0.14965459900E+01
     4    1   -0.10145316500E+01   0.10145288500E+01  -0.14506668400E+01
     5    1    0.27428927000E+01  -0.29392920000E-01   0.27846883300E+01
     6    1    0.25299621600E+01  -0.25299612700E+01  -0.67007060000E-01
     7    1    0.29390720000E-01  -0.27428914200E+01   0.27846886100E+01
     8    1    0.25858117700E+01   0.25858121400E+01  -0.44534190000E-01
     9    1    0.26937035800E+01   0.83410400000E-02  -0.28219620400E+01
    10    1   -0.29392100000E-01   0.27428914600E+01   0.27846896900E+01
    11    1   -0.83413600000E-02  -0.26937035900E+01  -0.28219614000E+01
    12    1   -0.27428916100E+01   0.29390250000E-01   0.27846893400E+01
    13    1   -0.25858125200E+01  -0.25858126700E+01  -0.44533980000E-01
    14    1    0.83414500000E-02   0.26937031100E+01  -0.28219609500E+01
    15    1   -0.25299623200E+01   0.25299629000E+01  -0.67007590000E-01
    16    1   -0.26937029000E+01  -0.83409400000E-02  -0.28219622800E+01
    17    1    0.40737201800E+01   0.13263159500E+01  -0.14026907000E+01
    18    1    0.40600149100E+01  -0.13636897200E+01   0.13425125300E+01
    19    1   -0.14602982700E+01   0.14602996600E+01   0.41601489500E+01
    20    1    0.14602991000E+01  -0.14602976800E+01   0.41601486800E+01
    21    1   -0.13263157600E+01  -0.40737193900E+01  -0.14026907200E+01
    22    1    0.13263175000E+01   0.40737199200E+01  -0.14026914000E+01
    23    1    0.14507891600E+01   0.14507890700E+01  -0.42326553500E+01
    24    1   -0.13636887300E+01   0.40600138000E+01   0.13425122600E+01
    25    1    0.13636891300E+01  -0.40600158600E+01   0.13425127400E+01
    26    1   -0.14507887600E+01  -0.14507901100E+01  -0.42326568200E+01
    27    1   -0.40600155500E+01   0.13636886500E+01   0.13425119900E+01
    28    1   -0.40737205700E+01  -0.13263153100E+01  -0.14026904000E+01
    29    1    0.11000000000E-06   0.23000000000E-06   0.54376948800E+01
    30    1    0.54739407700E+01   0.10900000000E-05  -0.86796900000E-02
    31    1   -0.11500000000E-05  -0.54739382000E+01  -0.86790200000E-02
    32    2   -0.15300000000E-05   0.12200000000E-05   0.91974798000E+00
   0.00000000000E+00   0.00000000000E+00   0.00000000000E+00
   0.54739400000E+01   0.54739400000E+01   0.54739400000E+01
  -0.54739400000E+01   0.54739400000E+01   0.54739400000E+01
  -0.54739400000E+01  -0.54739400000E+01   0.54739400000E+01
}

Driver = ConjugateGradient {
  MovedAtoms =  1:32
  MaxForceComponent = 1.000000000000000E-004
  MaxSteps = 10
  OutputPrefix = "geo_end"
}

Hamiltonian = DFTB {
  SCC = No
  MaxAngularMomentum = {
    Si = "d"
    O = "p"
  }
  Charge = 0.000000000000000E+000
  Eigensolver = Standard {}
  Filling = Fermi {
    Temperature [Kelvin] = 1.000000000000000E-007
  }
  SlaterKosterFiles = {
    Si-Si = "Si-Si.skf"
    Si-O = "Si-O.skf"
    O-Si = "O-Si.skf"
    O-O = "O-O.skf"
  }
  KPointsAndWeights = {
 0.750000000000000 0.750000000000000 0.750000000000000 0.250000000000000
 0.750000000000000 0.750000000000000 0.250000000000000 0.250000000000000
 0.250000000000000 0.750000000000000 0.750000000000000 0.250000000000000
 0.750000000000000 0.250000000000000 0.750000000000000 0.250000000000000
  }
}

Options = {
  WriteAutotestTag = Yes
}

ParserOptions = {
  ParserVersion = 4
}

Parallel {
  # Allow OMP threads explicitely to test for hybrid parallelisation with
  # MPI-binary. (Check the manual before using this in production runs!)
  UseOmpThreads = Yes
}

