Geometry = GenFormat {
2  F
 Si
 1    1    0.00 0.00 0.00
 2    1    0.23 0.27 0.20
 0.0  0.0  0.0
 3.0  3.0  0.0
 0.0  3.0  3.0
 3.0  0.0  3.0
}
Driver = ConjugateGradient {
 MovedAtoms = {1 2}
 LatticeOpt = Yes
 FixAngles = Yes
 MaxForceComponent = 1.0E-8
}
Hamiltonian = DFTB {
  MaxAngularMomentum = {
    Si = "p"
  }
  Eigensolver = Standard {}
  Filling = Fermi {}
  SlaterKosterFiles = {
    Si-Si = "./Si-Si.skf"
  }
  KPointsAndWeights = SupercellFolding {
   6 0 0
   0 6 0
   0 0 6
   0.5 0.5 0.5
  }
}
Options = {
  WriteAutotestTag = Yes
  AtomResolvedEnergies = Yes
}

ParserOptions = {
  ParserVersion = 3
}

Parallel {
  # Allow OMP threads explicitely to test for hybrid parallelisation with
  # MPI-binary. (Check the manual before using this in production runs!)
  UseOmpThreads = Yes
}

