Geometry = GenFormat {
2  S
 Ga As
     1    1    0.00000000000E+00   0.00000000000E+00   0.00000000000E+00
     2    2    0.13567730000E+01   0.13567730000E+01   0.13567730000E+01
   0.00000000000E+00   0.00000000000E+00   0.00000000000E+00
   0.27135460000E+01   0.27135460000E+01   0.00000000000E+00
   0.00000000000E+00   0.27135460000E+01   0.27135460000E+01
   0.27135460000E+01   0.00000000000E+00   0.27135460000E+01
}

Driver = {}

Hamiltonian = DFTB {
  SCC = Yes
  SCCTolerance = 1.0E-8
  MaxSCCIterations = 1000
  Mixer = Broyden {}
  MaxAngularMomentum = {
    Ga = "d"
    As = "p"
  }
  Charge = 0.0
  SpinPolarisation = Colinear {
    UnpairedElectrons = 0.0
  }
  SpinConstants = {  # These are dummy spin constants, never use them!
    Ga = {
 -4.100000000000000E-002 -4.000000000000000E-002 -4.000000000000000E-002
 -4.000000000000000E-002 -4.200000000000000E-002 -4.200000000000000E-002
 -4.000000000000000E-002 -4.200000000000000E-002 -5.300000000000000E-002
    }
    As = {
 -5.000000000000000E-002 -2.800000000000000E-002
 -2.800000000000000E-002 -3.000000000000000E-002
    }
  }
  Filling = Fermi {
    Temperature [Kelvin] = 1.000000000000000E-006
  }
  SlaterKosterFiles = Type2FileNames {
    Separator = "-"
    Suffix = ".skf"
  }
  KPointsAndWeights = SupercellFolding {
   6 0 0
   0 6 0
   0 0 6
   0.5 0.5 0.5
  }
  OrbitalPotential = {
   Functional = {pSIC}
   Ga = {
     Shells = {1 2}
     UJ = 0.05209025
   }
   Ga = {
     Shells = {3}
     UJ = 0.05209025
   }
   As = {
     Shells = {1 2}
     UJ = 0.068207
   }
  }
}

Options = {
  WriteAutotestTag = Yes
  CalculateForces = Yes
}

ParserOptions = {
  ParserVersion = 3
}

Parallel {
  # Allow OMP threads explicitely to test for hybrid parallelisation with
  # MPI-binary. (Check the manual before using this in production runs!)
  UseOmpThreads = Yes
}

