Geometry = GenFormat {
   30  C
   C  H
    1 1   -0.4960894119E+01   -0.6361793804E+01   -0.1468686907E+00
    2 1   -0.4647039074E+01   -0.4993568105E+01    0.1372421501E+00
    3 1   -0.5722028171E+01   -0.4120968534E+01    0.4226826256E+00
    4 1   -0.5501118315E+01   -0.2767269230E+01    0.7031992906E+00
    5 1   -0.4155430196E+01   -0.2249784697E+01    0.7018997732E+00
    6 1   -0.3084921974E+01   -0.3106897648E+01    0.4201412979E+00
    7 1   -0.3298780018E+01   -0.4475087084E+01    0.1358980437E+00
    8 1   -0.2223792399E+01   -0.5347684758E+01   -0.1495623364E+00
    9 1   -0.2444692377E+01   -0.6701428083E+01   -0.4298739144E+00
   10 1   -0.3790368322E+01   -0.7218938062E+01   -0.4284818920E+00
   11 1   -0.3994987538E+01   -0.8606307934E+01   -0.7177101233E+00
   12 1   -0.2931247196E+01   -0.9429666486E+01   -0.9915161986E+00
   13 1   -0.1602125651E+01   -0.8918534654E+01   -0.9928062919E+00
   14 1   -0.1363688757E+01   -0.7594408244E+01   -0.7203324585E+00
   15 1   -0.6582077142E+01   -0.1874307988E+01    0.9938718547E+00
   16 1   -0.6343611391E+01   -0.5501970380E+00    0.1266409737E+01
   17 1   -0.5014494889E+01   -0.3906714851E-01    0.1265013843E+01
   18 1   -0.3950763485E+01   -0.8624491386E+00    0.9912470797E+00
   19 2   -0.5887346655E+01   -0.6757009196E+01   -0.1458600108E+00
   20 2   -0.6748801177E+01   -0.4515351683E+01    0.4237024452E+00
   21 2   -0.2058449519E+01   -0.2711734346E+01    0.4192030727E+00
   22 2   -0.1197037050E+01   -0.4953257476E+01   -0.1507123994E+00
   23 2   -0.5020330183E+01   -0.9002593484E+01   -0.7170706128E+00
   24 2   -0.3096933322E+01   -0.1049276507E+02   -0.1212528844E+01
   25 2   -0.7671938410E+00   -0.9596870251E+01   -0.1214711168E+01
   26 2   -0.3370339568E+00   -0.7201533426E+01   -0.7217040485E+00
   27 2   -0.7608717141E+01   -0.2267196965E+01    0.9954153720E+00
   28 2   -0.7178510634E+01    0.1281258261E+00    0.1488464300E+01
   29 2   -0.4848783686E+01    0.1024035770E+01    0.1485963909E+01
   30 2   -0.2925411817E+01   -0.4661810654E+00    0.9906441954E+00
}

Driver = {}

Hamiltonian = DFTB {
  SCC = Yes
  SCCTolerance = 1.0E-008  # Extremely small
  MaxSCCIterations = 1000
  Mixer = Broyden {}
  MaxAngularMomentum = {
   H = "s" 
   C = "p"
  }

  SlaterKosterFiles = {
    C-C = "C-C.skf"
    C-H = "C-H.skf"
    H-C = "H-C.skf"
    H-H = "H-H.skf"
  }

  RangeSeparated = LC {
    Screening = Thresholded {
      Threshold = 1.0e-8
    }
  }
}

Options = {
  WriteAutotestTag = Yes
}

Analysis {
  CalculateForces = Yes
}

ParserOptions = {
  ParserVersion = 5
}
