Geometry = GenFormat {
 8  F
 C
 1 1 0.00 0.00 0.00
 2 1 0.25 0.25 0.25
 3 1 0.50 0.50 0.00
 4 1 0.75 0.75 0.25
 5 1 0.50 0.00 0.50
 6 1 0.75 0.25 0.75
 7 1 0.00 0.50 0.50
 8 1 0.25 0.75 0.75
 0.0 0.0 0.0
 3.5596 0.0    0.0
 0.0    3.5596 0.0
 0.0    0.0    3.5596
}

Driver = ConjugateGradient {
 LatticeOpt = Yes
 MovedAtoms = Range { 1 -1 }
 Pressure [pa] = 1.0E9
}

Hamiltonian = DFTB {
  SCC = No
  MaxAngularMomentum = {
    C = "p"
  }
  SlaterKosterFiles = Type2FileNames {
    Separator = "-"
    Suffix = ".skf"
  }
  KPointsAndWeights = SupercellFolding {
   6 0 0
   0 6 0
   0 0 6
   0.5 0.5 0.5
  }
}

Options = {
  WriteAutotestTag = Yes
}

ParserOptions = {
  ParserVersion = 3
}

Parallel {
  # Allow OMP threads explicitely to test for hybrid parallelisation with
  # MPI-binary. (Check the manual before using this in production runs!)
  UseOmpThreads = Yes
}

