Geometry = GenFormat {
8  S
 Si
     1    1    0.00000000000E+00   0.00000000000E+00   0.00000000000E+00
     2    1    0.13567730000E+01   0.13567730000E+01   0.13567730000E+01
     3    1    0.27135460000E+01   0.27135460000E+01   0.00000000000E+00
     4    1    0.40703190000E+01   0.40703190000E+01   0.13567730000E+01
     5    1    0.27135460000E+01   0.00000000000E+00   0.27135460000E+01
     6    1    0.40703190000E+01   0.13567730000E+01   0.40703190000E+01
     7    1    0.00000000000E+00   0.27135460000E+01   0.27135460000E+01
     8    1    0.13567730000E+01   0.40703190000E+01   0.40703190000E+01
   0.00000000000E+00   0.00000000000E+00   0.00000000000E+00
   0.54270920000E+01   0.00000000000E+00   0.00000000000E+00
   0.00000000000E+00   0.54270920000E+01   0.00000000000E+00
   0.00000000000E+00   0.00000000000E+00   0.54270920000E+01
}

Driver = VelocityVerlet {
  Steps = -1 # keep running until stopped
  TimeStep [Femtosecond] = 0.1
  Thermostat = None {
    InitialTemperature [Kelvin] = 1273.15
  }
  OutputPrefix = "geo_end"
}

Hamiltonian = DFTB {
  MaxAngularMomentum = {
    Si = "p"
  }
  Charge = 0.0
  Filling = Fermi {
    Temperature [Kelvin] = 300
  }
  SlaterKosterFiles = Type2FileNames {
    Prefix = {slakos/origin/pbc-0-3/}
    Separator = "-"
    Suffix = ".skf"
  }
  KPointsAndWeights = {
    0 0 0 1
  }
}

Options = {
  WriteAutotestTag = No
  WriteDetailedOut = No
  WriteCharges = No
  RandomSeed = 0
}

Analysis = {
  WriteBandOut = No
  MullikenAnalysis = No
}

ParserOptions = {
  WriteHSDInput = No
  ParserVersion = 13
}

Parallel {
  # Allow OMP threads explicitely to test for hybrid parallelisation with
  # MPI-binary. (Check the manual before using this in production runs!)
  UseOmpThreads = Yes
}
