Geometry = GenFormat {
2  C
 H
     1 1 0.0 0.0  0.0
     1 1 0.0 0.0  0.74
}

Hamiltonian = DFTB {
  MaxAngularMomentum = {
    H = "s"
  }
  Charge = 0.0
  Filling = Fermi {
    Temperature [Kelvin] = 10.0
  }
  SlaterKosterFiles = {
    H-H = "H-H.skf"
  }
  SpinOrbit = {
    H [eV] = {0.0}
  }
}

Options = {
  WriteAutotestTag = Yes
}

Analysis = {
  Polarisability = {
    Static = Yes
  }
}

ParserOptions = {
  ParserVersion = 6
}

Parallel {
  # Allow OMP threads explicitely to test for hybrid parallelisation with
  # MPI-binary. (Check the manual before using this in production runs!)
  UseOmpThreads = Yes
}
