Geometry = GenFormat {
  <<< geo.gen
}

Hamiltonian = DFTB {

  Solver = QR {}

  SCC = Yes
  SCCTolerance = 1.0E-12

  MaxAngularMomentum = {
    H = "s"
    C = "p"
  }

  SlaterKosterFiles = Type2FileNames {
    Prefix = "slakos/origin/ob2-1-1/shift/"
    Separator = "-"
    Suffix = ".skf"
  }

  Hybrid = LC {
    # The new default (since parser version 14) is:
    # Screening = MatrixBased {}

    # Test the backwards compatibility of the default screening algorithm.
    # The results obtained for this input should be equivalent to the old
    # default:
    # Screening = Thresholded {Threshold = 1.0E-6}
  }

}

Options {
  WriteAutotestTag = Yes
}

Analysis {
  PrintForces = No
}

ParserOptions {
  ParserVersion = 13
}

Parallel {
  # Allow OMP threads explicitely to test for hybrid parallelisation with
  # MPI-binary. (Check the manual before using this in production runs!)
  UseOmpThreads = Yes
}
