 Geometry = GenFormat { #graphene nanoflake dimer
    52  C
    C  H
    1 1    0.4449927769E+01    0.5157919458E+01    0.2697677926E+01
    2 1    0.4389308447E+01    0.6357366723E+01    0.3412901373E+01
    3 1    0.4511645953E+01    0.5158145165E+01    0.1301031140E+01
    4 1    0.4386914420E+01    0.7596214998E+01    0.2735408447E+01
    5 1    0.4334029740E+01    0.8853065462E+01    0.3437554577E+01
    6 1    0.4514011213E+01    0.6374923152E+01    0.5843339732E+00
    7 1    0.4449168949E+01    0.7608301067E+01    0.1306263103E+01
    8 1    0.4337230369E+01    0.1004430190E+02    0.2761677239E+01
    9 1    0.4457542907E+01    0.8852858328E+01    0.6003236344E+00
   10 1    0.4398221442E+01    0.1008613831E+02    0.1322794980E+01
   11 1    0.4412789298E+01    0.1130325814E+02    0.6068744892E+00
   12 2    0.4567386452E+01    0.4201570400E+01    0.7578321895E+00
   13 1    0.4536170594E+01    0.8865497111E+01   -0.8281895106E+00
   14 1    0.4603595757E+01    0.7608617190E+01   -0.1529620753E+01
   15 1    0.4489752118E+01    0.1130446097E+02   -0.7890436134E+00
   16 1    0.4552091635E+01    0.1010505044E+02   -0.1504770392E+01
   17 1    0.4590845348E+01    0.6417087598E+01   -0.8539175802E+00
   18 2    0.4459333563E+01    0.4201090596E+01    0.3241690445E+01
   19 2    0.4646860355E+01    0.5469446576E+01   -0.1413379784E+01
   20 2    0.4354353403E+01    0.6334216444E+01    0.4513375635E+01
   21 2    0.4300205892E+01    0.8847782914E+01    0.4538740100E+01
   22 1    0.7922807352E+01    0.5061184446E+01    0.2541585524E+01
   23 1    0.7845372245E+01    0.5065155918E+01    0.3937477312E+01
   24 2    0.7962002604E+01    0.4102434197E+01    0.2000934922E+01
   25 2    0.7828401606E+01    0.4109440818E+01    0.4483468279E+01
   26 1    0.7999317035E+01    0.6312154675E+01    0.3821763150E+00
   27 1    0.7937981648E+01    0.6275649555E+01    0.1821187324E+01
   28 1    0.7783291410E+01    0.6267219677E+01    0.4648760271E+01
   29 2    0.8031176079E+01    0.5362006355E+01   -0.1747171302E+00
   30 1    0.8002933605E+01    0.7500889637E+01   -0.2980945683E+00
   31 1    0.7878898811E+01    0.7511609111E+01    0.2539094921E+01
   32 1    0.7799939525E+01    0.7504264613E+01    0.3967623699E+01
   33 2    0.7718283322E+01    0.6247089776E+01    0.5748125012E+01
   34 1    0.7950227633E+01    0.8760331124E+01    0.3993933483E+00
   35 1    0.7887786194E+01    0.8753548614E+01    0.1828572363E+01
   36 1    0.7732948774E+01    0.8763753371E+01    0.4664417052E+01
   37 1    0.7948185207E+01    0.9996673915E+01   -0.2826666445E+00
   38 1    0.7823223756E+01    0.9989599765E+01    0.2545931187E+01
   39 1    0.7746244926E+01    0.9952776022E+01    0.3984321375E+01
   40 2    0.7668048409E+01    0.8762429847E+01    0.5764408595E+01
   41 1    0.7887789320E+01    0.1119876839E+02    0.4281146664E+00
   42 1    0.7826001041E+01    0.1120371986E+02    0.1824743206E+01
   43 2    0.4668348041E+01    0.7614020839E+01   -0.2629612398E+01
   44 2    0.4616793168E+01    0.1012925602E+02   -0.2604070663E+01
   45 2    0.4506193010E+01    0.1226218747E+02   -0.1331515581E+01
   46 2    0.4373408901E+01    0.1225999580E+02    0.1151070626E+01
   47 2    0.4305243592E+01    0.1099237593E+02    0.3322087521E+01
   48 2    0.8036981793E+01    0.7502095986E+01   -0.1399287189E+01
   49 2    0.7983263214E+01    0.1001574603E+02   -0.1383217255E+01
   50 2    0.7878631759E+01    0.1215358190E+02   -0.1194322405E+00
   51 2    0.7770442879E+01    0.1216231168E+02    0.2364396538E+01
   52 2    0.7690527518E+01    0.1090249574E+02    0.4540275994E+01
 }
 Driver = {}
 Hamiltonian = DFTB {
   SCC = Yes 
   SCCTolerance = 1.0e-10
   MaxAngularMomentum = {
     C = "p"
     H = "s"
   }
   SlaterKosterFiles = Type2FileNames {
       Separator = "-"
       Suffix = ".skf"
   }   
   Charge = 0.0
   Filling = Fermi {
     Temperature [k] = 273.15 
   }
   Dispersion = LennardJones {
     Parameters = UFFParameters {}
   }
   Differentiation = FiniteDiff {}
 }
 
 Options = {
   WriteAutotestTag = Yes
   RandomSeed = 1234 
 }
 
InputVersion = 20.1

 ElectronDynamics = {
   Steps = 5000
   TimeStep [au] = 0.2
   FieldStrength [v/a] = 0.0
   Perturbation = Laser {
     PolarizationDirection = 0 1 0 
     LaserEnergy [ev] = 3.802
   }
   IonDynamics = Yes
   InitialTemperature [k] = 273.15
 }

 Analysis = {
   CalculateForces = Yes
 } 
