Geometry = GenFormat {
    8  C
    As  S
    1 1    0.1262444217E+01    0.3432590826E-13   -0.1567784187E+01
    2 1   -0.1262444217E+01    0.6553415173E-14   -0.1567784187E+01
    3 2    0.1601879395E+01    0.1601879395E+01   -0.8790955827E-15
    4 2    0.1601879395E+01   -0.1601879395E+01    0.4866900463E-13
    5 2   -0.1601879395E+01    0.1601879395E+01    0.2171426391E-13
    6 2   -0.1601879395E+01   -0.1601879395E+01   -0.5524876837E-13
    7 1   -0.5180602931E-13    0.1262444217E+01    0.1567784187E+01
    8 1   -0.4504994620E-13   -0.1262444217E+01    0.1567784187E+01
}

Driver = {}

Hamiltonian = DFTB {
    #AtomSitePotential {
    #    Gross {
    #        Atoms = 1
    #        Vext = -5E-6
    #    }
    #}
    SCC = Yes
    SCCTolerance = 1.0E-8
    MaxAngularMomentum = {
        S = "d"
        As = "d"
    }
    Charge = 0.1
    Filling = Fermi {
        Temperature [Kelvin] = 100
    }
    SlaterKosterFiles = {
        S-S = "./S-S.skf"
        S-As = "./S-As.skf"
        As-S = "./As-S.skf"
        As-As = "./As-As.skf"
    }
    SpinOrbit = { # values from Handbook of Photochemistry, Third
        # Edition, Ed.Marco Montalti, Alberto Credi, Luca
        # Prodi, M. Teresa Gandolfi, CRC press 2006
        S [cm^-1] = {0 365 0}
        As [cm^-1] = {0 1202 0}
    }
}

Analysis = {
    ResponseKernel = {}
}

Options = {
    WriteAutotestTag = Yes
}

ParserOptions = {
    ParserVersion = 9
}

Parallel {
    # Allow OMP threads explicitely to test for hybrid parallelisation with
    # MPI-binary. (Check the manual before using this in production runs!)
    UseOmpThreads = Yes
}
