Geometry = genFormat {
  <<< geo.gen
}

Hamiltonian = xTB {
  Method = "GFN2-xTB"
  SccTolerance = 1E-8
}

ParserOptions { ParserVersion = 9 }
Parallel { UseOmpThreads = Yes }
