Geometry = GenFormat {
2  S
 Ga As
     1    1    0.00000000000E+00   0.00000000000E+00   0.00000000000E+00
     2    2    0.13567730000E+01   0.13567730000E+01   0.13567730000E+01
   0.00000000000E+00   0.00000000000E+00   0.00000000000E+00
   0.27135460000E+01   0.27135460000E+01   0.00000000000E+00
   0.00000000000E+00   0.27135460000E+01   0.27135460000E+01
   0.27135460000E+01   0.00000000000E+00   0.27135460000E+01
}
Driver = {}
Hamiltonian = DFTB {
  SCC = No
  MaxAngularMomentum = {
    Ga = "d"
    As = "p"
  }
  Filling = Fermi {
    Temperature [Kelvin] = 464.180200000000
  }
  SlaterKosterFiles = {
    Ga-Ga = "./Ga-Ga.skf"
    Ga-As = "./Ga-As.skf"
    As-Ga = "./As-Ga.skf"
    As-As = "./As-As.skf"
  }
  KPointsAndWeights = {
 0.125000000000000 0.125000000000000 0.125000000000000 2.00000000000000
 0.125000000000000 0.125000000000000 0.375000000000000 2.00000000000000
 0.125000000000000 0.125000000000000 0.625000000000000 2.00000000000000
 0.125000000000000 0.125000000000000 0.875000000000000 2.00000000000000
 0.125000000000000 0.375000000000000 0.125000000000000 2.00000000000000
 0.125000000000000 0.375000000000000 0.375000000000000 2.00000000000000
 0.125000000000000 0.375000000000000 0.625000000000000 2.00000000000000
 0.125000000000000 0.375000000000000 0.875000000000000 2.00000000000000
 0.125000000000000 0.625000000000000 0.125000000000000 2.00000000000000
 0.125000000000000 0.625000000000000 0.375000000000000 2.00000000000000
 0.125000000000000 0.625000000000000 0.625000000000000 2.00000000000000
 0.125000000000000 0.625000000000000 0.875000000000000 2.00000000000000
 0.125000000000000 0.875000000000000 0.125000000000000 2.00000000000000
 0.125000000000000 0.875000000000000 0.375000000000000 2.00000000000000
 0.125000000000000 0.875000000000000 0.625000000000000 2.00000000000000
 0.125000000000000 0.875000000000000 0.875000000000000 2.00000000000000
 0.375000000000000 0.125000000000000 0.125000000000000 2.00000000000000
 0.375000000000000 0.125000000000000 0.375000000000000 2.00000000000000
 0.375000000000000 0.125000000000000 0.625000000000000 2.00000000000000
 0.375000000000000 0.125000000000000 0.875000000000000 2.00000000000000
 0.375000000000000 0.375000000000000 0.125000000000000 2.00000000000000
 0.375000000000000 0.375000000000000 0.375000000000000 2.00000000000000
 0.375000000000000 0.375000000000000 0.625000000000000 2.00000000000000
 0.375000000000000 0.375000000000000 0.875000000000000 2.00000000000000
 0.375000000000000 0.625000000000000 0.125000000000000 2.00000000000000
 0.375000000000000 0.625000000000000 0.375000000000000 2.00000000000000
 0.375000000000000 0.625000000000000 0.625000000000000 2.00000000000000
 0.375000000000000 0.625000000000000 0.875000000000000 2.00000000000000
 0.375000000000000 0.875000000000000 0.125000000000000 2.00000000000000
 0.375000000000000 0.875000000000000 0.375000000000000 2.00000000000000
 0.375000000000000 0.875000000000000 0.625000000000000 2.00000000000000
 0.375000000000000 0.875000000000000 0.875000000000000 2.00000000000000
  }
}

Options = {
  MullikenAnalysis = Yes
  CalculateForces = Yes
  WriteAutotestTag = Yes
  AtomResolvedEnergies = Yes
}

ParserOptions = {
  ParserVersion = 3
}

Parallel {
  # Allow OMP threads explicitely to test for hybrid parallelisation with
  # MPI-binary. (Check the manual before using this in production runs!)
  UseOmpThreads = Yes
}

