# Example corresponding to PhD thesis of A. D. Garcia, U. Bremen 2014.

Geometry = GenFormat {
    <<< C66O10N4H44.gen
}

Hamiltonian = DFTB {
    SCC = Yes
    SCCTolerance = 1.0E-8 # Small!
    MaxAngularMomentum = {
        O = "p"
        N = "p"
        C = "p"
        H = "s"
    }
    Charge = 0.0
    Filling = Fermi {
        Temperature [Kelvin] = 0.0
    }
    SlaterKosterFiles = Type2FileNames {
        Prefix ="./"
        Separator = "-"
        Suffix = ".skf"
    }
    Dispersion = SlaterKirkwood {
        PolarRadiusCharge = HybridDependentPol {
            C = {
                CovalentRadius [Angstrom] = 0.6
                HybridPolarisations [Angstrom^3,Angstrom,] = {
                    1.382 1.382 1.382 1.382 1.382 1.382
                    3.8 3.8 3.8 3.8 3.8 3.8 2.50
                }
            }
            O = {
                CovalentRadius [Angstrom] = 0.6
                HybridPolarisations [Angstrom^3,Angstrom,] = {
                    0.56 0.56 0.00 0.00 0.00 0.00
                    3.8 3.8 3.8 3.8 3.8 3.8 3.15
                }
            }
            N = {
                CovalentRadius [Angstrom] = 0.6
                HybridPolarisations [Angstrom^3,Angstrom,] = {
                    1.03 1.03 1.03 1.03 1.03 1.03
                    3.8 3.8 3.8 3.8 3.8 3.8 2.82
                }
            }
            H = {
                CovalentRadius [Angstrom] = 0.6
                HybridPolarisations [Angstrom^3,Angstrom,] = {
                    0.386 0.386 0.000 0.000 0.000 0.000
                    3.5 3.5 3.5 3.5 3.5 3.5 0.8
                }
            }
        }
    }
    ReadInitialCharges = No
}

ExcitedState {
    Casida {
        NrOfExcitations = 15
        StateOfInterest = 0
        Symmetry = singlet
        EnergyWindow = 0.1
        WriteStatusArnoldi = No
        WriteTransitions = Yes
        WriteSPTransitions = Yes
    }
}

Options = {
    WriteAutotestTag = Yes
}

ParserOptions = {
    ParserVersion = 5
}

Parallel {
  # Allow OMP threads explicitely to test for hybrid parallelisation with
  # MPI-binary. (Check the manual before using this in production runs!)
  UseOmpThreads = Yes
}

