Geometry = GenFormat {
    <<< geo.gen
}

Hamiltonian = DFTB {
    SCC = Yes
    ReadInitialCharges = Yes
    SCCTolerance = 1.0E-8
    MaxAngularMomentum = {
        C = "p"
    }

    SlaterKosterFiles = {
        C-C = "C-C.skf"
    }

    RangeSeparated = LC {
      Screening = NeighbourBased {
	CutoffReduction [AA] = 2.0
      }
    }
}

Options = {
    WriteAutotestTag = Yes
}

Analysis {
    CalculateForces = Yes
}

ParserOptions = {
    ParserVersion = 6
}
