Geometry = GenFormat {
 3 C
 O H
    1  1    0.0000000000E+00    0.0000000000E+00    0.0000000000E+00
    2  2    0.0000000000E+00    0.5742848701E+00    0.7782640576E+00
    3  2    0.0000000000E+00    0.5742848701E+00   -0.7782640576E+00
}

Hamiltonian = DFTB {
  SCC = Yes
  SCCTolerance = 1.0E-010   # Extremely small!
  MaxAngularMomentum = {
    O = "p"
    H = "s"
  }
  Filling = Fermi {
    Temperature [Kelvin] = 1.0E-008
  }
  SlaterKosterFiles = Type2FileNames {
    Separator = "-"
    Suffix  = ".skf"
  }
}

Analysis = {
  CalculateForces = Yes
}

Options = {
  WriteAutotestTag = No
}

ParserOptions = {
  ParserVersion = 10
}
