Geometry = GenFormat {
    <<< 512.gen
}

Driver = {}

Hamiltonian = DFTB {
    SCC = Yes
    SCCTolerance = 1.0E-9 # Extremely small!
    MaxAngularMomentum = {
        Si = "p"
        C = "p"
    }
    Filling = Fermi {
        Temperature [Kelvin] = 100.0
    }
    SlaterKosterFiles = Type2FileNames {
        Prefix = "slakos/origin/pbc-0-3/"
        Separator = "-"
        Suffix = ".skf"
    }
    Solver = Elpa {
      Mode = 2
      Autotune = Yes
      Gpu = Yes
    }
    KPointsAndWeights = SupercellFolding {
        2 0 0
        0 2 0
        0 0 2
        0.5 0.5 0.5
    }
}

Options = {
    WriteAutotestTag = Yes
}

Analysis = {
    CalculateForces = Yes
}

ParserOptions = {
    ParserVersion = 10
}

Parallel {
    Groups = 4
}
