Geometry = GenFormat { # Needed for chemical types and positions
   12  C
  C  H
    1 1      0.00000000      0.41727209      1.34035331
    2 1      0.00000000      1.36277581      0.31264346
    3 1      0.00000000      0.94549248     -1.02003049
    4 1      0.00000000     -0.41727209     -1.32501204
    5 1      0.00000000     -1.36277581     -0.29730219
    6 1      0.00000000     -0.94549248      1.03537176
    7 2      0.00000000      0.74550740      2.38862741
    8 2      0.00000000      2.43471932      0.55254238
    9 2      0.00000000      1.68922144     -1.82842183
   10 2      0.00000000     -0.74550739     -2.37328614
   11 2      0.00000000     -2.43471932     -0.53720110
   12 2      0.00000000     -1.68922144      1.84376309
}

DisplayModes = {
 PlotModes = {-6:-1} # Take the top 6 modes
 Animate = Yes # make xyz files showing the atoms moving
}

# Currently used as the only way to get masses
SlaterKosterFiles = Type2FileNames {
  Separator = "-"
  Suffix = ".skf"
}

Hessian = {
 # Hessian matrix for atoms
 #     1    2    3    4    5    6    7    8    9   10
 #    11   12
    0.1120761120    0.0000000000    0.0000000000   -0.0493547065
    0.0000000000    0.0000000000    0.0048994878    0.0000000000
    0.0000000000   -0.0080696050    0.0000000000    0.0000000000
    0.0048988954    0.0000000000    0.0000000000   -0.0493510299
    0.0000000000    0.0000000000   -0.0305683915    0.0000000000
    0.0000000000    0.0004635077    0.0000000000    0.0000000000
    0.0077630497    0.0000000000    0.0000000000   -0.0009839396
    0.0000000000    0.0000000000    0.0077630160    0.0000000000
    0.0000000000    0.0004636039    0.0000000000    0.0000000000
   -0.0000000002    0.8267600866   -0.0145691653    0.0000000002
   -0.2763846660    0.1035772514   -0.0000000002    0.0777068053
    0.0752407875    0.0000000000   -0.0831492259    0.0280227471
    0.0000000001   -0.0024714331   -0.1215317913    0.0000000001
   -0.4311173266   -0.0142626546    0.0000000000   -0.0808026885
   -0.0699125305   -0.0000000001   -0.0165593701    0.0212986225
    0.0000000000   -0.0000388124   -0.0029322982    0.0000000000
   -0.0000668643    0.0002629644    0.0000000000    0.0010076454
   -0.0001557288    0.0000000000   -0.0148841503   -0.0050382041
    0.0000000000   -0.0145712247    0.7847379559    0.0000000000
    0.2085953578   -0.3024396636    0.0000000000   -0.0060466788
   -0.0691475553    0.0000000000    0.0280225177   -0.0024241149
    0.0000000000   -0.0402434892    0.0110319730   -0.0000000001
   -0.1192724545   -0.1477135313    0.0000000000   -0.0699192860
   -0.2822047877    0.0000000000   -0.0074522448    0.0085361658
    0.0000000000   -0.0016624367   -0.0034410239    0.0000000000
    0.0002628445    0.0006902823    0.0000000000   -0.0014256327
   -0.0044866760    0.0000000000    0.0237127273    0.0068609757
   -0.0493547067    0.0000000000    0.0000000000    0.1120761897
    0.0000000000    0.0000000000   -0.0493516904    0.0000000000
    0.0000000000    0.0048988952    0.0000000000    0.0000000000
   -0.0080696600    0.0000000000    0.0000000000    0.0048993844
    0.0000000000    0.0000000000    0.0004636246    0.0000000000
    0.0000000000   -0.0305679104    0.0000000000    0.0000000000
    0.0004637036    0.0000000000    0.0000000000    0.0077630421
    0.0000000000    0.0000000000   -0.0009839421    0.0000000000
    0.0000000000    0.0077630699    0.0000000000    0.0000000000
   -0.0000000001   -0.2763833623    0.2085937531    0.0000000001
    0.7826182770   -0.0108864995   -0.0000000001   -0.1607447804
   -0.1418384506    0.0000000001   -0.0024715702   -0.0402436726
    0.0000000000    0.0016630234    0.0209437734    0.0000000001
   -0.0623958441    0.0056479534    0.0000000000    0.0095103284
   -0.0096283829    0.0000000000   -0.2924049839   -0.0522571777
    0.0000000000    0.0082584932    0.0217809809    0.0000000000
   -0.0045798812   -0.0009595921    0.0000000000    0.0007283046
    0.0001963137    0.0000000000   -0.0037980043   -0.0013489990
    0.0000000000    0.1035792270   -0.3024407960    0.0000000002
   -0.0108850467    0.8288805357   -0.0000000001   -0.0368299509
   -0.4180845236   -0.0000000001   -0.1215316999    0.0110326728
    0.0000000001    0.0209428161   -0.0872365991   -0.0000000001
    0.0869358819    0.0709542432    0.0000000000    0.0191225208
   -0.0175342336    0.0000000000   -0.0522518277   -0.0706038983
    0.0000000000   -0.0069702804   -0.0162816948    0.0000000000
    0.0003105062    0.0011002376    0.0000000000    0.0001969500
   -0.0001050964    0.0000000000   -0.0026190966    0.0003191525
    0.0048994879    0.0000000000    0.0000000000   -0.0493516907
    0.0000000000    0.0000000000    0.1120757728    0.0000000000
    0.0000000000   -0.0493510287    0.0000000000    0.0000000000
    0.0048993845    0.0000000000    0.0000000000   -0.0080693497
    0.0000000000    0.0000000000    0.0077629284    0.0000000000
    0.0000000000    0.0004630458    0.0000000000    0.0000000000
   -0.0305706084    0.0000000000    0.0000000000    0.0004630635
    0.0000000000    0.0000000000    0.0077629224    0.0000000000
    0.0000000000   -0.0009839276    0.0000000000    0.0000000000
   -0.0000000001    0.0777072175   -0.0060464563    0.0000000000
   -0.1607462089   -0.0368224917   -0.0000000001    0.8078788125
    0.0254978353    0.0000000001   -0.4311173847   -0.1192790532
    0.0000000001   -0.0623954654    0.0869344935    0.0000000000
   -0.0468748148   -0.0489673578    0.0000000000   -0.0024283111
    0.0034095564    0.0000000000   -0.0066609523   -0.0284578711
    0.0000000000   -0.1713044207    0.1221575002    0.0000000000
   -0.0037320576    0.0000461464    0.0000000000   -0.0005999475
    0.0019871147    0.0000000000    0.0002735331   -0.0004594162
   -0.0000000001    0.0752398160   -0.0691480746    0.0000000000
   -0.1418465313   -0.4180844436    0.0000000000    0.0254982443
    0.8036170240    0.0000000000   -0.0142561606   -0.1477146547
    0.0000000000    0.0056485823    0.0709556739    0.0000000001
   -0.0489674421   -0.0386997849    0.0000000000    0.0021398133
   -0.0010502516    0.0000000001    0.0002902070   -0.0013605069
   -0.0000000001    0.1221586474   -0.1916971193    0.0000000000
   -0.0287024846   -0.0042889558    0.0000000000    0.0032564750
   -0.0028788511    0.0000000000   -0.0004591666    0.0003499446
   -0.0080696053    0.0000000000    0.0000000000    0.0048988957
    0.0000000000    0.0000000000   -0.0493510288    0.0000000000
    0.0000000000    0.1120761104    0.0000000000    0.0000000000
   -0.0493547062    0.0000000000    0.0000000000    0.0048994876
    0.0000000000    0.0000000000   -0.0009839396    0.0000000000
    0.0000000000    0.0077630160    0.0000000000    0.0000000000
    0.0004636043    0.0000000000    0.0000000000   -0.0305683916
    0.0000000000    0.0000000000    0.0004635077    0.0000000000
    0.0000000000    0.0077630499    0.0000000000    0.0000000000
    0.0000000000   -0.0831492255    0.0280227479    0.0000000000
   -0.0024714338   -0.1215317928    0.0000000000   -0.4311173242
   -0.0142626531    0.0000000002    0.8267600879   -0.0145691698
   -0.0000000001   -0.2763846691    0.1035772505   -0.0000000002
    0.0777068045    0.0752407874    0.0000000000   -0.0000668644
    0.0002629638    0.0000000000    0.0010076462   -0.0001557286
    0.0000000000   -0.0148841500   -0.0050382041    0.0000000000
   -0.0808026905   -0.0699125250    0.0000000001   -0.0165593689
    0.0212986222    0.0000000000   -0.0000388122   -0.0029322984
    0.0000000000    0.0280225226   -0.0024241159    0.0000000000
   -0.0402434893    0.0110319662    0.0000000000   -0.1192724563
   -0.1477135295    0.0000000000   -0.0145712066    0.7847379689
    0.0000000000    0.2085953549   -0.3024396690   -0.0000000001
   -0.0060466801   -0.0691475555   -0.0000000001    0.0002628444
    0.0006902838    0.0000000001   -0.0014256348   -0.0044866758
    0.0000000000    0.0237127227    0.0068609788    0.0000000000
   -0.0699192923   -0.2822047966    0.0000000000   -0.0074522464
    0.0085361660    0.0000000000   -0.0016624389   -0.0034410214
    0.0048988954    0.0000000000    0.0000000000   -0.0080696601
    0.0000000000    0.0000000000    0.0048993845    0.0000000000
    0.0000000000   -0.0493547064    0.0000000000    0.0000000000
    0.1120761829    0.0000000000    0.0000000000   -0.0493516866
    0.0000000000    0.0000000000    0.0077630421    0.0000000000
    0.0000000000   -0.0009839422    0.0000000000    0.0000000000
    0.0077630699    0.0000000000    0.0000000000    0.0004636246
    0.0000000000    0.0000000000   -0.0305679074    0.0000000000
    0.0000000000    0.0004637031    0.0000000000    0.0000000000
   -0.0000000001   -0.0024715736   -0.0402436713    0.0000000000
    0.0016630233    0.0209437715    0.0000000000   -0.0623958499
    0.0056479512    0.0000000000   -0.2763833620    0.2085937523
    0.0000000001    0.7826182802   -0.0108865053    0.0000000001
   -0.1607447793   -0.1418384560    0.0000000000   -0.0045798803
   -0.0009595901    0.0000000000    0.0007283074    0.0001963146
   -0.0000000001   -0.0037980037   -0.0013489989    0.0000000000
    0.0095103303   -0.0096283794    0.0000000000   -0.2924049869
   -0.0522571691    0.0000000000    0.0082584946    0.0217809805
    0.0000000002   -0.1215316955    0.0110326714   -0.0000000001
    0.0209428177   -0.0872366049   -0.0000000001    0.0869358792
    0.0709542418    0.0000000001    0.1035792354   -0.3024407969
    0.0000000001   -0.0108850544    0.8288805353   -0.0000000002
   -0.0368299488   -0.4180845313    0.0000000000    0.0003105069
    0.0011002417    0.0000000000    0.0001969477   -0.0001050962
    0.0000000000   -0.0026191002    0.0003191568    0.0000000000
    0.0191225222   -0.0175342288    0.0000000000   -0.0522518261
   -0.0706038977    0.0000000000   -0.0069702840   -0.0162816912
   -0.0493510298    0.0000000000    0.0000000000    0.0048993844
    0.0000000000    0.0000000000   -0.0080693501    0.0000000000
    0.0000000000    0.0048994880    0.0000000000    0.0000000000
   -0.0493516866    0.0000000000    0.0000000000    0.1120757725
    0.0000000000    0.0000000000    0.0004630627    0.0000000000
    0.0000000000    0.0077629223    0.0000000000    0.0000000000
   -0.0009839276    0.0000000000    0.0000000000    0.0077629284
    0.0000000000    0.0000000000    0.0004630461    0.0000000000
    0.0000000000   -0.0305706103    0.0000000000    0.0000000000
    0.0000000000   -0.4311173881   -0.1192790545    0.0000000000
   -0.0623954709    0.0869344976    0.0000000000   -0.0468748171
   -0.0489673544    0.0000000001    0.0777072174   -0.0060464552
   -0.0000000001   -0.1607462028   -0.0368224963   -0.0000000001
    0.8078788246    0.0254978304    0.0000000000   -0.0037320592
    0.0000461402    0.0000000000   -0.0005999488    0.0019871139
   -0.0000000001    0.0002735339   -0.0004594173    0.0000000000
   -0.0024283108    0.0034095573    0.0000000000   -0.0066609522
   -0.0284578721    0.0000000000   -0.1713044260    0.1221575104
    0.0000000000   -0.0142561633   -0.1477146574   -0.0000000001
    0.0056485814    0.0709556725    0.0000000000   -0.0489674465
   -0.0386997859    0.0000000000    0.0752398114   -0.0691480692
    0.0000000001   -0.1418465302   -0.4180844544    0.0000000000
    0.0254982373    0.8036170343    0.0000000001   -0.0287024835
   -0.0042889547    0.0000000000    0.0032564765   -0.0028788506
    0.0000000000   -0.0004591663    0.0003499449    0.0000000000
    0.0021398147   -0.0010502485   -0.0000000001    0.0002902140
   -0.0013605056    0.0000000000    0.1221586545   -0.1916971253
   -0.0305682080    0.0000000000    0.0000000000    0.0004635383
    0.0000000000    0.0000000000    0.0077629125    0.0000000000
    0.0000000000   -0.0009839187    0.0000000000    0.0000000000
    0.0077630260    0.0000000000    0.0000000000    0.0004629766
    0.0000000000    0.0000000000    0.0225306139    0.0000000000
    0.0000000000   -0.0030878351    0.0000000000    0.0000000000
   -0.0000542818    0.0000000000    0.0000000000   -0.0011465888
    0.0000000000    0.0000000000   -0.0000542350    0.0000000000
    0.0000000000   -0.0030879998    0.0000000000    0.0000000000
    0.0000000001   -0.0808029793   -0.0699144961   -0.0000000003
    0.0095108722    0.0191230455    0.0000000002   -0.0024283891
    0.0021396274    0.0000000001   -0.0000669859    0.0002625272
   -0.0000000001   -0.0045795203    0.0003107105    0.0000000000
   -0.0037324688   -0.0287031956    0.0000000000    0.0793068795
    0.0774164716    0.0000000000    0.0011650652    0.0000095947
    0.0000000000    0.0001936289    0.0007358375    0.0000000000
    0.0000723360   -0.0000585985    0.0000000000   -0.0003146304
   -0.0010291927    0.0000000000    0.0016761920   -0.0002923315
    0.0000000002   -0.0699177003   -0.2822030774   -0.0000000001
   -0.0096268046   -0.0175342887   -0.0000000001    0.0034090192
   -0.0010508597    0.0000000003    0.0002627505    0.0006897521
   -0.0000000001   -0.0009587559    0.0011004844    0.0000000000
    0.0000459889   -0.0042891707   -0.0000000001    0.0774202006
    0.3023451509   -0.0000000001   -0.0010112740    0.0012503759
   -0.0000000001   -0.0002972549   -0.0007372218    0.0000000000
   -0.0000585717   -0.0000964075    0.0000000000    0.0000039259
   -0.0002289231    0.0000000000    0.0007284761    0.0007541854
    0.0004634215    0.0000000000    0.0000000000   -0.0305677271
    0.0000000000    0.0000000000    0.0004629594    0.0000000000
    0.0000000000    0.0077629998    0.0000000000    0.0000000000
   -0.0009839212    0.0000000000    0.0000000000    0.0077629063
    0.0000000000    0.0000000000   -0.0030878351    0.0000000000
    0.0000000000    0.0225302603    0.0000000000    0.0000000000
   -0.0030879703    0.0000000000    0.0000000000   -0.0000542350
    0.0000000000    0.0000000000   -0.0011465852    0.0000000000
    0.0000000000   -0.0000542735    0.0000000000    0.0000000000
    0.0000000000   -0.0165597411   -0.0074505315    0.0000000000
   -0.2924032509   -0.0522555890    0.0000000000   -0.0066608416
    0.0002905321    0.0000000000    0.0010072190   -0.0014249101
    0.0000000000    0.0007279859    0.0001965277    0.0000000001
   -0.0006002870    0.0032561979    0.0000000000    0.0011649497
   -0.0010132111    0.0000000000    0.3136405373    0.0578625237
    0.0000000000    0.0007970307    0.0008015352    0.0000000000
   -0.0003145213    0.0000038402    0.0000000000   -0.0001047349
   -0.0000437448    0.0000000000   -0.0006943456   -0.0002231704
    0.0000000000    0.0212988254    0.0085366206   -0.0000000002
   -0.0522530672   -0.0706043868    0.0000000002   -0.0284591610
   -0.0013607292   -0.0000000002   -0.0001556864   -0.0044869371
    0.0000000000    0.0001964413   -0.0001053012    0.0000000000
    0.0019867275   -0.0028784268    0.0000000000    0.0000114553
    0.0012506699    0.0000000000    0.0578556581    0.0680129433
    0.0000000000   -0.0002181436    0.0016327710    0.0000000000
   -0.0010291318   -0.0002287074    0.0000000001   -0.0000440402
    0.0000808335    0.0000000000    0.0008101225    0.0001506504
    0.0077630337    0.0000000000    0.0000000000    0.0004636174
    0.0000000000    0.0000000000   -0.0305704249    0.0000000000
    0.0000000000    0.0004635179    0.0000000000    0.0000000000
    0.0077630538    0.0000000000    0.0000000000   -0.0009839066
    0.0000000000    0.0000000000   -0.0000542818    0.0000000000
    0.0000000000   -0.0030879705    0.0000000000    0.0000000000
    0.0225322395    0.0000000000    0.0000000000   -0.0030879997
    0.0000000000    0.0000000000   -0.0000542736    0.0000000000
    0.0000000000   -0.0011466052    0.0000000000    0.0000000000
    0.0000000000   -0.0000387327   -0.0016628025    0.0000000001
    0.0082586990   -0.0069697143    0.0000000000   -0.1713035895
    0.1221582168   -0.0000000001   -0.0148850709    0.0237115260
    0.0000000000   -0.0037976504   -0.0026186516    0.0000000001
    0.0002729834   -0.0004589751    0.0000000000    0.0001936085
   -0.0002971526    0.0000000000    0.0007969140   -0.0002207663
    0.0000000000    0.1795247774   -0.1352843705    0.0000000000
    0.0016761575    0.0007302219    0.0000000000   -0.0006945719
    0.0008100611    0.0000000000   -0.0000035242    0.0001024071
    0.0000000000   -0.0029324162   -0.0034401511   -0.0000000001
    0.0217799184   -0.0162828484    0.0000000002    0.1221590379
   -0.1916966879   -0.0000000002   -0.0050381471    0.0068612677
    0.0000000000   -0.0013495830    0.0003183874    0.0000000000
   -0.0004589520    0.0003490205    0.0000000000    0.0007359998
   -0.0007371193    0.0000000000    0.0008046775    0.0016328473
   -0.0000000001   -0.1352862698    0.2021102937    0.0000000000
   -0.0002938361    0.0007542605    0.0000000001   -0.0002225094
    0.0001509279    0.0000000000    0.0001020803   -0.0000201982
   -0.0009839188    0.0000000000    0.0000000000    0.0077630261
    0.0000000000    0.0000000000    0.0004629773    0.0000000000
    0.0000000000   -0.0305682081    0.0000000000    0.0000000000
    0.0004635384    0.0000000000    0.0000000000    0.0077629125
    0.0000000000    0.0000000000   -0.0011465887    0.0000000000
    0.0000000000   -0.0000542350    0.0000000000    0.0000000000
   -0.0030879997    0.0000000000    0.0000000000    0.0225306131
    0.0000000000    0.0000000000   -0.0030878352    0.0000000000
    0.0000000000   -0.0000542819    0.0000000000    0.0000000000
    0.0000000000   -0.0000669856    0.0002625299   -0.0000000001
   -0.0045795203    0.0003107099   -0.0000000001   -0.0037324720
   -0.0287031955    0.0000000000   -0.0808029823   -0.0699144831
    0.0000000003    0.0095108745    0.0191230449   -0.0000000001
   -0.0024283892    0.0021396255    0.0000000000    0.0000723348
   -0.0000586027    0.0000000000   -0.0003146326   -0.0010291933
    0.0000000000    0.0016761915   -0.0002923309    0.0000000000
    0.0793068842    0.0774164641   -0.0000000001    0.0011650669
    0.0000095951    0.0000000000    0.0001936301    0.0007358360
   -0.0000000001    0.0002627491    0.0006897467    0.0000000000
   -0.0009587566    0.0011004835    0.0000000000    0.0000459912
   -0.0042891694    0.0000000000   -0.0699177074   -0.2822030887
    0.0000000001   -0.0096268052   -0.0175342870    0.0000000002
    0.0034090192   -0.0010508604   -0.0000000001   -0.0000585703
   -0.0000964034    0.0000000000    0.0000039255   -0.0002289230
    0.0000000000    0.0007284752    0.0007541862    0.0000000000
    0.0774202068    0.3023451609   -0.0000000001   -0.0010112728
    0.0012503761    0.0000000000   -0.0002972549   -0.0007372216
    0.0077630001    0.0000000000    0.0000000000   -0.0009839213
    0.0000000000    0.0000000000    0.0077629063    0.0000000000
    0.0000000000    0.0004634215    0.0000000000    0.0000000000
   -0.0305677239    0.0000000000    0.0000000000    0.0004629601
    0.0000000000    0.0000000000   -0.0000542350    0.0000000000
    0.0000000000   -0.0011465853    0.0000000000    0.0000000000
   -0.0000542736    0.0000000000    0.0000000000   -0.0030878352
    0.0000000000    0.0000000000    0.0225302569    0.0000000000
    0.0000000000   -0.0030879706    0.0000000000    0.0000000000
    0.0000000000    0.0010072165   -0.0014249099    0.0000000001
    0.0007279853    0.0001965298   -0.0000000001   -0.0006002878
    0.0032561964    0.0000000000   -0.0165597424   -0.0074505300
    0.0000000001   -0.2924032554   -0.0522555803    0.0000000000
   -0.0066608423    0.0002905316    0.0000000000   -0.0003145213
    0.0000038393    0.0000000000   -0.0001047340   -0.0000437448
    0.0000000000   -0.0006943451   -0.0002231708    0.0000000000
    0.0011649500   -0.0010132103    0.0000000000    0.3136405435
    0.0578625155    0.0000000000    0.0007970328    0.0008015334
    0.0000000000   -0.0001556926   -0.0044869405    0.0000000001
    0.0001964343   -0.0001053030    0.0000000000    0.0019867247
   -0.0028784270    0.0000000000    0.0212988281    0.0085366228
   -0.0000000002   -0.0522530591   -0.0706043829    0.0000000001
   -0.0284591588   -0.0013607294    0.0000000000   -0.0010291314
   -0.0002287076    0.0000000000   -0.0000440361    0.0000808345
    0.0000000000    0.0008101216    0.0001506516    0.0000000000
    0.0000114556    0.0012506707    0.0000000000    0.0578556540
    0.0680129429    0.0000000000   -0.0002181404    0.0016327679
    0.0004635177    0.0000000000    0.0000000000    0.0077630541
    0.0000000000    0.0000000000   -0.0009839069    0.0000000000
    0.0000000000    0.0077630338    0.0000000000    0.0000000000
    0.0004636169    0.0000000000    0.0000000000   -0.0305704268
    0.0000000000    0.0000000000   -0.0030879998    0.0000000000
    0.0000000000   -0.0000542735    0.0000000000    0.0000000000
   -0.0011466052    0.0000000000    0.0000000000   -0.0000542819
    0.0000000000    0.0000000000   -0.0030879705    0.0000000000
    0.0000000000    0.0225322421    0.0000000000    0.0000000000
    0.0000000000   -0.0148850727    0.0237115278   -0.0000000001
   -0.0037976482   -0.0026186517    0.0000000000    0.0002729818
   -0.0004589767   -0.0000000002   -0.0000387344   -0.0016628030
    0.0000000002    0.0082586989   -0.0069697149   -0.0000000001
   -0.1713036020    0.1221582349    0.0000000001    0.0016761584
    0.0007302242    0.0000000000   -0.0006945686    0.0008100618
    0.0000000000   -0.0000035218    0.0001024049    0.0000000000
    0.0001936085   -0.0002971535    0.0000000000    0.0007969143
   -0.0002207662    0.0000000000    0.1795247858   -0.1352843875
   -0.0000000001   -0.0050381461    0.0068612691    0.0000000000
   -0.0013495814    0.0003183828    0.0000000000   -0.0004589564
    0.0003490168   -0.0000000001   -0.0029324167   -0.0034401492
   -0.0000000001    0.0217799208   -0.0162828547    0.0000000002
    0.1221590422   -0.1916967033    0.0000000000   -0.0002938348
    0.0007542649    0.0000000000   -0.0002225079    0.0001509289
    0.0000000000    0.0001020789   -0.0000201959    0.0000000000
    0.0007360013   -0.0007371147    0.0000000000    0.0008046804
    0.0016328489    0.0000000000   -0.1352862803    0.2021103063
}
