Geometry = GenFormat {
8 C
O N H
1   1  -1.3553680000E+00   2.0000000000E-06  -2.2800000000E-04
2   2   1.3378370000E+00  -1.0000000000E-06   3.2000000000E-04
3   3   2.8006900000E-01   2.0000000000E-05  -2.6080000000E-03
4   3   1.6815190000E+00  -1.7750000000E-03   9.5936000000E-01
5   3  -1.9285510000E+00   7.6916600000E-01   7.0000000000E-05
6   3  -1.9285250000E+00  -7.6918100000E-01   1.3300000000E-04
7   3   1.6868040000E+00   8.2951400000E-01  -4.7715000000E-01
8   3   1.6867740000E+00  -8.2775100000E-01  -4.8022500000E-01
}
Hamiltonian = DFTB {
  Charge = +1
  SCC = Yes
  SCCTolerance = 1.0E-9
  MaxSCCIterations = 300
  Filling = Fermi {
    Temperature = 0.0
  }
  Mixer = Broyden {
    MixingParameter = 0.200000000000000
    InverseJacobiWeight = 1.000000000000000E-002
    MinimalWeight = 1.00000000000000
    MaximalWeight = 100000.000000000
    WeightFactor = 1.000000000000000E-002
  }
  MaxAngularMomentum = {
    H = "s"
    N = "p"
    O = "p"
  }
  ThirdOrderFull = Yes
  HubbardDerivs = {
    H = -0.1857
    N = -0.1535
    O = -0.1575
  }
  Multipole = OneCenterApproximation {
    AtomDIntergralScalings = {
      H = 0.0
      N = 0.6
      O = 0.2
    }
    AtomQIntergralScalings = {
      H = 0.0
      N = 3.4
      O = 3.0
    }
    OneCenterAtomIntergrals = {
      H:S_XX_S = 0.559763113574278
      N:S_X_Px = 0.688568319516854
      N:S_XX_S = 0.576377978998475
      N:Px_XX_Px = 1.053083135080823
      N:Py_XX_Py = 0.351027711693608
      O:S_X_Px = 0.608943777618081
      O:S_XX_S = 0.452148337809063
      O:Px_XX_Px = 0.838929210584501
      O:Py_XX_Py = 0.279643070194834
      O:Px_X_Dxx-yy = 0.00000000000000
      O:Px_X_Dzz = 0.00000000000000
      O:Py_Y_Dxx-yy = 0.00000000000000
      O:Pz_Z_Dzz = 0.00000000000000
      O:S_XX_Dxx-yy = 0.00000000000000
      O:S_XX_Dzz = 0.00000000000000
      O:S_YY_Dxx-yy = 0.00000000000000
      O:S_ZZ_Dzz = 0.00000000000000
      O:Dxy_XX_Dxy = 0.00000000000000
      O:Dyz_XX_Dyz = 0.00000000000000
      O:Dzz_XX_Dxx-yy = 0.00000000000000
      O:Dzz_XX_Dzz = 0.00000000000000
      O:Dzz_YY_Dxx-yy = 0.00000000000000
      O:Dzz_ZZ_Dzz = 0.00000000000000
      O:Dxz_XZ_Dzz = 0.00000000000000
      O:Dyz_YZ_Dxx-yy = 0.00000000000000
      N:Px_X_Dxx-yy = 0.00000000000000
      N:Px_X_Dzz = 0.00000000000000
      N:Py_Y_Dxx-yy = 0.00000000000000
      N:Pz_Z_Dzz = 0.00000000000000
      N:S_XX_Dxx-yy = 0.00000000000000
      N:S_XX_Dzz = 0.00000000000000
      N:S_YY_Dxx-yy = 0.00000000000000
      N:S_ZZ_Dzz = 0.00000000000000
      N:Dxy_XX_Dxy = 0.00000000000000
      N:Dyz_XX_Dyz = 0.00000000000000
      N:Dzz_XX_Dxx-yy = 0.00000000000000
      N:Dzz_XX_Dzz = 0.00000000000000
      N:Dzz_YY_Dxx-yy = 0.00000000000000
      N:Dzz_ZZ_Dzz = 0.00000000000000
      N:Dxz_XZ_Dzz = 0.00000000000000
      N:Dyz_YZ_Dxx-yy = 0.00000000000000
      H:S_X_Px = 0.00000000000000
      H:Px_X_Dxx-yy = 0.00000000000000
      H:Px_X_Dzz = 0.00000000000000
      H:Py_Y_Dxx-yy = 0.00000000000000
      H:Pz_Z_Dzz = 0.00000000000000
      H:Px_XX_Px = 0.00000000000000
      H:Py_XX_Py = 0.00000000000000
      H:S_XX_Dxx-yy = 0.00000000000000
      H:S_XX_Dzz = 0.00000000000000
      H:S_YY_Dxx-yy = 0.00000000000000
      H:S_ZZ_Dzz = 0.00000000000000
      H:Dxy_XX_Dxy = 0.00000000000000
      H:Dyz_XX_Dyz = 0.00000000000000
      H:Dzz_XX_Dxx-yy = 0.00000000000000
      H:Dzz_XX_Dzz = 0.00000000000000
      H:Dzz_YY_Dxx-yy = 0.00000000000000
      H:Dzz_ZZ_Dzz = 0.00000000000000
      H:Dxz_XZ_Dzz = 0.00000000000000
      H:Dyz_YZ_Dxx-yy = 0.00000000000000
    }
  }
  SlaterKosterFiles = Type2Filenames {
    Prefix = "/home/qv0/workplace/projects/multipole_expansion/work/egen/3obp/"
    Suffix = ".skf"
    Separator = "-"
    LowerCaseTypeName = No
  }
  PolynomialRepulsive = {}
  ShellResolvedSCC = No
  OldSKInterpolation = No
  RangeSeparated = None {}
  ReadInitialCharges = No
  InitialCharges = {}
  HCorrection = None {}
  SpinPolarisation = {}
  ElectricField = {}
  Solver = RelativelyRobust {}
  OnSiteCorrection = {}
  Dispersion = {}
  ThirdOrder = No
  Differentiation = FiniteDiff {
    Delta = 1.220703125000000E-004
  }
  ForceEvaluation = "Traditional"
}
ParserOptions = {
  ParserVersion = 8
  IgnoreUnprocessedNodes = Yes
  WriteHSDInput = Yes
  WriteXMLInput = No
  StopAfterParsing = No
}
Analysis = {
  CalculateForces = Yes
  ProjectStates = {}
  WriteEigenvectors = No
  WriteBandOut = Yes
  MullikenAnalysis = Yes
  AtomResolvedEnergies = No
}
Options = {
  WriteAutotestTag = Yes
  WriteResultsTag = Yes
  WriteDetailedOut = Yes
  WriteDetailedXML = No
  RestartFrequency = 20
  RandomSeed = 0
  WriteHS = No
  WriteRealHS = No
  MinimiseMemoryUsage = No
  ShowFoldedCoords = No
  TimingVerbosity = 1
  WriteChargesAsText = No
}
Driver = {}
ExcitedState = {}
