Geometry = GenFormat {
8 C
O N H
1   1  -1.3553680000E+00   2.0000000000E-06  -2.2800000000E-04
2   2   1.3378370000E+00  -1.0000000000E-06   3.2000000000E-04
3   3   2.8006900000E-01   2.0000000000E-05  -2.6080000000E-03
4   3   1.6815190000E+00  -1.7750000000E-03   9.5936000000E-01
5   3  -1.9285510000E+00   7.6916600000E-01   7.0000000000E-05
6   3  -1.9285250000E+00  -7.6918100000E-01   1.3300000000E-04
7   3   1.6868040000E+00   8.2951400000E-01  -4.7715000000E-01
8   3   1.6867740000E+00  -8.2775100000E-01  -4.8022500000E-01
}

Hamiltonian = DFTB {
  Charge = +1
  SCC = Yes
  SCCTolerance = 1.0E-9
  MaxSCCIterations = 300
  Filling = Fermi {
    Temperature = 0.0
  }
  Mixer = Broyden {}
  MaxAngularMomentum = {
    H = "s"
    C = "p"
    N = "p"
    O = "p"
  }

  ThirdOrderFull = Yes
  HubbardDerivs = {
    H = -0.1857
    C = -0.1492
    N = -0.1535
    O = -0.1575
  }

  Multipole = OneCenterApproximation {
    AtomDIntergralScalings = {
      H = 0.0
      C = 0.8
      N = 0.6
      O = 0.2
    }
    AtomQIntergralScalings = {
      H = 0.0
      C = 2.6
      N = 3.4
      O = 3.0
    }
    OneCenterAtomIntergrals = {
      H:S_XX_S   = 0.559763113574278
      C:S_X_Px   = 0.796211024997751
      C:S_XX_S   = 0.766888106831445
      C:Px_XX_Px = 1.385502638579228
      C:Py_XX_Py = 0.461834212859743
      N:S_X_Px   = 0.688568319516854
      N:S_XX_S   = 0.576377978998475
      N:Px_XX_Px = 1.053083135080823
      N:Py_XX_Py = 0.351027711693608
      O:S_X_Px   = 0.608943777618081
      O:S_XX_S   = 0.452148337809063
      O:Px_XX_Px = 0.838929210584501
      O:Py_XX_Py = 0.279643070194834
    }
  }

  SlaterKosterFiles = Type2Filenames {
    Suffix = ".skf"
    Separator = "-"
  }
}

ParserOptions = {
  ParserVersion = 8
  IgnoreUnprocessedNodes = Yes
}

Analysis = {
  CalculateForces = Yes
}

Options = {
  WriteAutotestTag = Yes
  WriteResultsTag = Yes
}
