Geometry = GenFormat {
384  S
 Si
     1    1   -0.26948351400E+01  -0.26948351400E+01  -0.26948351400E+01
     2    1   -0.13474175700E+01  -0.13474175700E+01  -0.13474175700E+01
     3    1    0.00000000000E+00   0.00000000000E+00  -0.26948351400E+01
     4    1    0.13474175700E+01   0.13474175700E+01  -0.13474175700E+01
     5    1    0.00000000000E+00  -0.26948351400E+01   0.00000000000E+00
     6    1    0.13474175700E+01  -0.13474175700E+01   0.13474175700E+01
     7    1   -0.26948351400E+01   0.00000000000E+00   0.00000000000E+00
     8    1   -0.13474175700E+01   0.13474175700E+01   0.13474175700E+01
     9    1   -0.26948351400E+01  -0.26948351400E+01   0.26948351400E+01
    10    1   -0.13474175700E+01  -0.13474175700E+01   0.40422527100E+01
    11    1    0.00000000000E+00   0.00000000000E+00   0.26948351400E+01
    12    1    0.13474175700E+01   0.13474175700E+01   0.40422527100E+01
    13    1    0.00000000000E+00  -0.26948351400E+01   0.53896702800E+01
    14    1    0.13474175700E+01  -0.13474175700E+01   0.67370878500E+01
    15    1   -0.26948351400E+01   0.00000000000E+00   0.53896702800E+01
    16    1   -0.13474175700E+01   0.13474175700E+01   0.67370878500E+01
    17    1   -0.26948351400E+01  -0.26948351400E+01   0.80845054200E+01
    18    1   -0.13474175700E+01  -0.13474175700E+01   0.94319229900E+01
    19    1    0.00000000000E+00   0.00000000000E+00   0.80845054200E+01
    20    1    0.13474175700E+01   0.13474175700E+01   0.94319229900E+01
    21    1    0.00000000000E+00  -0.26948351400E+01   0.10779340560E+02
    22    1    0.13474175700E+01  -0.13474175700E+01   0.12126758130E+02
    23    1   -0.26948351400E+01   0.00000000000E+00   0.10779340560E+02
    24    1   -0.13474175700E+01   0.13474175700E+01   0.12126758130E+02
    25    1   -0.26948351400E+01   0.26948351400E+01  -0.26948351400E+01
    26    1   -0.13474175700E+01   0.40422527100E+01  -0.13474175700E+01
    27    1    0.00000000000E+00   0.53896702800E+01  -0.26948351400E+01
    28    1    0.13474175700E+01   0.67370878500E+01  -0.13474175700E+01
    29    1    0.00000000000E+00   0.26948351400E+01   0.00000000000E+00
    30    1    0.13474175700E+01   0.40422527100E+01   0.13474175700E+01
    31    1   -0.26948351400E+01   0.53896702800E+01   0.00000000000E+00
    32    1   -0.13474175700E+01   0.67370878500E+01   0.13474175700E+01
    33    1   -0.26948351400E+01   0.26948351400E+01   0.26948351400E+01
    34    1   -0.13474175700E+01   0.40422527100E+01   0.40422527100E+01
    35    1    0.00000000000E+00   0.53896702800E+01   0.26948351400E+01
    36    1    0.13474175700E+01   0.67370878500E+01   0.40422527100E+01
    37    1    0.00000000000E+00   0.26948351400E+01   0.53896702800E+01
    38    1    0.13474175700E+01   0.40422527100E+01   0.67370878500E+01
    39    1   -0.26948351400E+01   0.53896702800E+01   0.53896702800E+01
    40    1   -0.13474175700E+01   0.67370878500E+01   0.67370878500E+01
    41    1   -0.26948351400E+01   0.26948351400E+01   0.80845054200E+01
    42    1   -0.13474175700E+01   0.40422527100E+01   0.94319229900E+01
    43    1    0.00000000000E+00   0.53896702800E+01   0.80845054200E+01
    44    1    0.13474175700E+01   0.67370878500E+01   0.94319229900E+01
    45    1    0.00000000000E+00   0.26948351400E+01   0.10779340560E+02
    46    1    0.13474175700E+01   0.40422527100E+01   0.12126758130E+02
    47    1   -0.26948351400E+01   0.53896702800E+01   0.10779340560E+02
    48    1   -0.13474175700E+01   0.67370878500E+01   0.12126758130E+02
    49    1   -0.26948351400E+01   0.80845054200E+01  -0.26948351400E+01
    50    1   -0.13474175700E+01   0.94319229900E+01  -0.13474175700E+01
    51    1    0.00000000000E+00   0.10779340560E+02  -0.26948351400E+01
    52    1    0.13474175700E+01   0.12126758130E+02  -0.13474175700E+01
    53    1    0.00000000000E+00   0.80845054200E+01   0.00000000000E+00
    54    1    0.13474175700E+01   0.94319229900E+01   0.13474175700E+01
    55    1   -0.26948351400E+01   0.10779340560E+02   0.00000000000E+00
    56    1   -0.13474175700E+01   0.12126758130E+02   0.13474175700E+01
    57    1   -0.26948351400E+01   0.80845054200E+01   0.26948351400E+01
    58    1   -0.13474175700E+01   0.94319229900E+01   0.40422527100E+01
    59    1    0.00000000000E+00   0.10779340560E+02   0.26948351400E+01
    60    1    0.13474175700E+01   0.12126758130E+02   0.40422527100E+01
    61    1    0.00000000000E+00   0.80845054200E+01   0.53896702800E+01
    62    1    0.13474175700E+01   0.94319229900E+01   0.67370878500E+01
    63    1   -0.26948351400E+01   0.10779340560E+02   0.53896702800E+01
    64    1   -0.13474175700E+01   0.12126758130E+02   0.67370878500E+01
    65    1   -0.26948351400E+01   0.80845054200E+01   0.80845054200E+01
    66    1   -0.13474175700E+01   0.94319229900E+01   0.94319229900E+01
    67    1    0.00000000000E+00   0.10779340560E+02   0.80845054200E+01
    68    1    0.13474175700E+01   0.12126758130E+02   0.94319229900E+01
    69    1    0.00000000000E+00   0.80845054200E+01   0.10779340560E+02
    70    1    0.13474175700E+01   0.94319229900E+01   0.12126758130E+02
    71    1   -0.26948351400E+01   0.10779340560E+02   0.10779340560E+02
    72    1   -0.13474175700E+01   0.12126758130E+02   0.12126758130E+02
    73    1   -0.26948351400E+01   0.13474175700E+02  -0.26948351400E+01
    74    1   -0.13474175700E+01   0.14821593270E+02  -0.13474175700E+01
    75    1    0.00000000000E+00   0.16169010840E+02  -0.26948351400E+01
    76    1    0.13474175700E+01   0.17516428410E+02  -0.13474175700E+01
    77    1    0.00000000000E+00   0.13474175700E+02   0.00000000000E+00
    78    1    0.13474175700E+01   0.14821593270E+02   0.13474175700E+01
    79    1   -0.26948351400E+01   0.16169010840E+02   0.00000000000E+00
    80    1   -0.13474175700E+01   0.17516428410E+02   0.13474175700E+01
    81    1   -0.26948351400E+01   0.13474175700E+02   0.26948351400E+01
    82    1   -0.13474175700E+01   0.14821593270E+02   0.40422527100E+01
    83    1    0.00000000000E+00   0.16169010840E+02   0.26948351400E+01
    84    1    0.13474175700E+01   0.17516428410E+02   0.40422527100E+01
    85    1    0.00000000000E+00   0.13474175700E+02   0.53896702800E+01
    86    1    0.13474175700E+01   0.14821593270E+02   0.67370878500E+01
    87    1   -0.26948351400E+01   0.16169010840E+02   0.53896702800E+01
    88    1   -0.13474175700E+01   0.17516428410E+02   0.67370878500E+01
    89    1   -0.26948351400E+01   0.13474175700E+02   0.80845054200E+01
    90    1   -0.13474175700E+01   0.14821593270E+02   0.94319229900E+01
    91    1    0.00000000000E+00   0.16169010840E+02   0.80845054200E+01
    92    1    0.13474175700E+01   0.17516428410E+02   0.94319229900E+01
    93    1    0.00000000000E+00   0.13474175700E+02   0.10779340560E+02
    94    1    0.13474175700E+01   0.14821593270E+02   0.12126758130E+02
    95    1   -0.26948351400E+01   0.16169010840E+02   0.10779340560E+02
    96    1   -0.13474175700E+01   0.17516428410E+02   0.12126758130E+02
    97    1    0.26948351400E+01  -0.26948351400E+01  -0.26948351400E+01
    98    1    0.40422527100E+01  -0.13474175700E+01  -0.13474175700E+01
    99    1    0.53896702800E+01   0.00000000000E+00  -0.26948351400E+01
   100    1    0.67370878500E+01   0.13474175700E+01  -0.13474175700E+01
   101    1    0.53896702800E+01  -0.26948351400E+01   0.00000000000E+00
   102    1    0.67370878500E+01  -0.13474175700E+01   0.13474175700E+01
   103    1    0.26948351400E+01   0.00000000000E+00   0.00000000000E+00
   104    1    0.40422527100E+01   0.13474175700E+01   0.13474175700E+01
   105    1    0.26948351400E+01  -0.26948351400E+01   0.26948351400E+01
   106    1    0.40422527100E+01  -0.13474175700E+01   0.40422527100E+01
   107    1    0.53896702800E+01   0.00000000000E+00   0.26948351400E+01
   108    1    0.67370878500E+01   0.13474175700E+01   0.40422527100E+01
   109    1    0.53896702800E+01  -0.26948351400E+01   0.53896702800E+01
   110    1    0.67370878500E+01  -0.13474175700E+01   0.67370878500E+01
   111    1    0.26948351400E+01   0.00000000000E+00   0.53896702800E+01
   112    1    0.40422527100E+01   0.13474175700E+01   0.67370878500E+01
   113    1    0.26948351400E+01  -0.26948351400E+01   0.80845054200E+01
   114    1    0.40422527100E+01  -0.13474175700E+01   0.94319229900E+01
   115    1    0.53896702800E+01   0.00000000000E+00   0.80845054200E+01
   116    1    0.67370878500E+01   0.13474175700E+01   0.94319229900E+01
   117    1    0.53896702800E+01  -0.26948351400E+01   0.10779340560E+02
   118    1    0.67370878500E+01  -0.13474175700E+01   0.12126758130E+02
   119    1    0.26948351400E+01   0.00000000000E+00   0.10779340560E+02
   120    1    0.40422527100E+01   0.13474175700E+01   0.12126758130E+02
   121    1    0.26948351400E+01   0.26948351400E+01  -0.26948351400E+01
   122    1    0.40422527100E+01   0.40422527100E+01  -0.13474175700E+01
   123    1    0.53896702800E+01   0.53896702800E+01  -0.26948351400E+01
   124    1    0.67370878500E+01   0.67370878500E+01  -0.13474175700E+01
   125    1    0.53896702800E+01   0.26948351400E+01   0.00000000000E+00
   126    1    0.67370878500E+01   0.40422527100E+01   0.13474175700E+01
   127    1    0.26948351400E+01   0.53896702800E+01   0.00000000000E+00
   128    1    0.40422527100E+01   0.67370878500E+01   0.13474175700E+01
   129    1    0.26948351400E+01   0.26948351400E+01   0.26948351400E+01
   130    1    0.40422527100E+01   0.40422527100E+01   0.40422527100E+01
   131    1    0.53896702800E+01   0.53896702800E+01   0.26948351400E+01
   132    1    0.67370878500E+01   0.67370878500E+01   0.40422527100E+01
   133    1    0.53896702800E+01   0.26948351400E+01   0.53896702800E+01
   134    1    0.67370878500E+01   0.40422527100E+01   0.67370878500E+01
   135    1    0.26948351400E+01   0.53896702800E+01   0.53896702800E+01
   136    1    0.40422527100E+01   0.67370878500E+01   0.67370878500E+01
   137    1    0.26948351400E+01   0.26948351400E+01   0.80845054200E+01
   138    1    0.40422527100E+01   0.40422527100E+01   0.94319229900E+01
   139    1    0.53896702800E+01   0.53896702800E+01   0.80845054200E+01
   140    1    0.67370878500E+01   0.67370878500E+01   0.94319229900E+01
   141    1    0.53896702800E+01   0.26948351400E+01   0.10779340560E+02
   142    1    0.67370878500E+01   0.40422527100E+01   0.12126758130E+02
   143    1    0.26948351400E+01   0.53896702800E+01   0.10779340560E+02
   144    1    0.40422527100E+01   0.67370878500E+01   0.12126758130E+02
   145    1    0.26948351400E+01   0.80845054200E+01  -0.26948351400E+01
   146    1    0.40422527100E+01   0.94319229900E+01  -0.13474175700E+01
   147    1    0.53896702800E+01   0.10779340560E+02  -0.26948351400E+01
   148    1    0.67370878500E+01   0.12126758130E+02  -0.13474175700E+01
   149    1    0.53896702800E+01   0.80845054200E+01   0.00000000000E+00
   150    1    0.67370878500E+01   0.94319229900E+01   0.13474175700E+01
   151    1    0.26948351400E+01   0.10779340560E+02   0.00000000000E+00
   152    1    0.40422527100E+01   0.12126758130E+02   0.13474175700E+01
   153    1    0.26948351400E+01   0.80845054200E+01   0.26948351400E+01
   154    1    0.40422527100E+01   0.94319229900E+01   0.40422527100E+01
   155    1    0.53896702800E+01   0.10779340560E+02   0.26948351400E+01
   156    1    0.67370878500E+01   0.12126758130E+02   0.40422527100E+01
   157    1    0.53896702800E+01   0.80845054200E+01   0.53896702800E+01
   158    1    0.67370878500E+01   0.94319229900E+01   0.67370878500E+01
   159    1    0.26948351400E+01   0.10779340560E+02   0.53896702800E+01
   160    1    0.40422527100E+01   0.12126758130E+02   0.67370878500E+01
   161    1    0.26948351400E+01   0.80845054200E+01   0.80845054200E+01
   162    1    0.40422527100E+01   0.94319229900E+01   0.94319229900E+01
   163    1    0.53896702800E+01   0.10779340560E+02   0.80845054200E+01
   164    1    0.67370878500E+01   0.12126758130E+02   0.94319229900E+01
   165    1    0.53896702800E+01   0.80845054200E+01   0.10779340560E+02
   166    1    0.67370878500E+01   0.94319229900E+01   0.12126758130E+02
   167    1    0.26948351400E+01   0.10779340560E+02   0.10779340560E+02
   168    1    0.40422527100E+01   0.12126758130E+02   0.12126758130E+02
   169    1    0.26948351400E+01   0.13474175700E+02  -0.26948351400E+01
   170    1    0.40422527100E+01   0.14821593270E+02  -0.13474175700E+01
   171    1    0.53896702800E+01   0.16169010840E+02  -0.26948351400E+01
   172    1    0.67370878500E+01   0.17516428410E+02  -0.13474175700E+01
   173    1    0.53896702800E+01   0.13474175700E+02   0.00000000000E+00
   174    1    0.67370878500E+01   0.14821593270E+02   0.13474175700E+01
   175    1    0.26948351400E+01   0.16169010840E+02   0.00000000000E+00
   176    1    0.40422527100E+01   0.17516428410E+02   0.13474175700E+01
   177    1    0.26948351400E+01   0.13474175700E+02   0.26948351400E+01
   178    1    0.40422527100E+01   0.14821593270E+02   0.40422527100E+01
   179    1    0.53896702800E+01   0.16169010840E+02   0.26948351400E+01
   180    1    0.67370878500E+01   0.17516428410E+02   0.40422527100E+01
   181    1    0.53896702800E+01   0.13474175700E+02   0.53896702800E+01
   182    1    0.67370878500E+01   0.14821593270E+02   0.67370878500E+01
   183    1    0.26948351400E+01   0.16169010840E+02   0.53896702800E+01
   184    1    0.40422527100E+01   0.17516428410E+02   0.67370878500E+01
   185    1    0.26948351400E+01   0.13474175700E+02   0.80845054200E+01
   186    1    0.40422527100E+01   0.14821593270E+02   0.94319229900E+01
   187    1    0.53896702800E+01   0.16169010840E+02   0.80845054200E+01
   188    1    0.67370878500E+01   0.17516428410E+02   0.94319229900E+01
   189    1    0.53896702800E+01   0.13474175700E+02   0.10779340560E+02
   190    1    0.67370878500E+01   0.14821593270E+02   0.12126758130E+02
   191    1    0.26948351400E+01   0.16169010840E+02   0.10779340560E+02
   192    1    0.40422527100E+01   0.17516428410E+02   0.12126758130E+02
   193    1    0.80845054200E+01  -0.26948351400E+01  -0.26948351400E+01
   194    1    0.94319229900E+01  -0.13474175700E+01  -0.13474175700E+01
   195    1    0.10779340560E+02   0.00000000000E+00  -0.26948351400E+01
   196    1    0.12126758130E+02   0.13474175700E+01  -0.13474175700E+01
   197    1    0.10779340560E+02  -0.26948351400E+01   0.00000000000E+00
   198    1    0.12126758130E+02  -0.13474175700E+01   0.13474175700E+01
   199    1    0.80845054200E+01   0.00000000000E+00   0.00000000000E+00
   200    1    0.94319229900E+01   0.13474175700E+01   0.13474175700E+01
   201    1    0.80845054200E+01  -0.26948351400E+01   0.26948351400E+01
   202    1    0.94319229900E+01  -0.13474175700E+01   0.40422527100E+01
   203    1    0.10779340560E+02   0.00000000000E+00   0.26948351400E+01
   204    1    0.12126758130E+02   0.13474175700E+01   0.40422527100E+01
   205    1    0.10779340560E+02  -0.26948351400E+01   0.53896702800E+01
   206    1    0.12126758130E+02  -0.13474175700E+01   0.67370878500E+01
   207    1    0.80845054200E+01   0.00000000000E+00   0.53896702800E+01
   208    1    0.94319229900E+01   0.13474175700E+01   0.67370878500E+01
   209    1    0.80845054200E+01  -0.26948351400E+01   0.80845054200E+01
   210    1    0.94319229900E+01  -0.13474175700E+01   0.94319229900E+01
   211    1    0.10779340560E+02   0.00000000000E+00   0.80845054200E+01
   212    1    0.12126758130E+02   0.13474175700E+01   0.94319229900E+01
   213    1    0.10779340560E+02  -0.26948351400E+01   0.10779340560E+02
   214    1    0.12126758130E+02  -0.13474175700E+01   0.12126758130E+02
   215    1    0.80845054200E+01   0.00000000000E+00   0.10779340560E+02
   216    1    0.94319229900E+01   0.13474175700E+01   0.12126758130E+02
   217    1    0.80845054200E+01   0.26948351400E+01  -0.26948351400E+01
   218    1    0.94319229900E+01   0.40422527100E+01  -0.13474175700E+01
   219    1    0.10779340560E+02   0.53896702800E+01  -0.26948351400E+01
   220    1    0.12126758130E+02   0.67370878500E+01  -0.13474175700E+01
   221    1    0.10779340560E+02   0.26948351400E+01   0.00000000000E+00
   222    1    0.12126758130E+02   0.40422527100E+01   0.13474175700E+01
   223    1    0.80845054200E+01   0.53896702800E+01   0.00000000000E+00
   224    1    0.94319229900E+01   0.67370878500E+01   0.13474175700E+01
   225    1    0.80845054200E+01   0.26948351400E+01   0.26948351400E+01
   226    1    0.94319229900E+01   0.40422527100E+01   0.40422527100E+01
   227    1    0.10779340560E+02   0.53896702800E+01   0.26948351400E+01
   228    1    0.12126758130E+02   0.67370878500E+01   0.40422527100E+01
   229    1    0.10779340560E+02   0.26948351400E+01   0.53896702800E+01
   230    1    0.12126758130E+02   0.40422527100E+01   0.67370878500E+01
   231    1    0.80845054200E+01   0.53896702800E+01   0.53896702800E+01
   232    1    0.94319229900E+01   0.67370878500E+01   0.67370878500E+01
   233    1    0.80845054200E+01   0.26948351400E+01   0.80845054200E+01
   234    1    0.94319229900E+01   0.40422527100E+01   0.94319229900E+01
   235    1    0.10779340560E+02   0.53896702800E+01   0.80845054200E+01
   236    1    0.12126758130E+02   0.67370878500E+01   0.94319229900E+01
   237    1    0.10779340560E+02   0.26948351400E+01   0.10779340560E+02
   238    1    0.12126758130E+02   0.40422527100E+01   0.12126758130E+02
   239    1    0.80845054200E+01   0.53896702800E+01   0.10779340560E+02
   240    1    0.94319229900E+01   0.67370878500E+01   0.12126758130E+02
   241    1    0.80845054200E+01   0.80845054200E+01  -0.26948351400E+01
   242    1    0.94319229900E+01   0.94319229900E+01  -0.13474175700E+01
   243    1    0.10779340560E+02   0.10779340560E+02  -0.26948351400E+01
   244    1    0.12126758130E+02   0.12126758130E+02  -0.13474175700E+01
   245    1    0.10779340560E+02   0.80845054200E+01   0.00000000000E+00
   246    1    0.12126758130E+02   0.94319229900E+01   0.13474175700E+01
   247    1    0.80845054200E+01   0.10779340560E+02   0.00000000000E+00
   248    1    0.94319229900E+01   0.12126758130E+02   0.13474175700E+01
   249    1    0.80845054200E+01   0.80845054200E+01   0.26948351400E+01
   250    1    0.94319229900E+01   0.94319229900E+01   0.40422527100E+01
   251    1    0.10779340560E+02   0.10779340560E+02   0.26948351400E+01
   252    1    0.12126758130E+02   0.12126758130E+02   0.40422527100E+01
   253    1    0.10779340560E+02   0.80845054200E+01   0.53896702800E+01
   254    1    0.12126758130E+02   0.94319229900E+01   0.67370878500E+01
   255    1    0.80845054200E+01   0.10779340560E+02   0.53896702800E+01
   256    1    0.94319229900E+01   0.12126758130E+02   0.67370878500E+01
   257    1    0.80845054200E+01   0.80845054200E+01   0.80845054200E+01
   258    1    0.94319229900E+01   0.94319229900E+01   0.94319229900E+01
   259    1    0.10779340560E+02   0.10779340560E+02   0.80845054200E+01
   260    1    0.12126758130E+02   0.12126758130E+02   0.94319229900E+01
   261    1    0.10779340560E+02   0.80845054200E+01   0.10779340560E+02
   262    1    0.12126758130E+02   0.94319229900E+01   0.12126758130E+02
   263    1    0.80845054200E+01   0.10779340560E+02   0.10779340560E+02
   264    1    0.94319229900E+01   0.12126758130E+02   0.12126758130E+02
   265    1    0.80845054200E+01   0.13474175700E+02  -0.26948351400E+01
   266    1    0.94319229900E+01   0.14821593270E+02  -0.13474175700E+01
   267    1    0.10779340560E+02   0.16169010840E+02  -0.26948351400E+01
   268    1    0.12126758130E+02   0.17516428410E+02  -0.13474175700E+01
   269    1    0.10779340560E+02   0.13474175700E+02   0.00000000000E+00
   270    1    0.12126758130E+02   0.14821593270E+02   0.13474175700E+01
   271    1    0.80845054200E+01   0.16169010840E+02   0.00000000000E+00
   272    1    0.94319229900E+01   0.17516428410E+02   0.13474175700E+01
   273    1    0.80845054200E+01   0.13474175700E+02   0.26948351400E+01
   274    1    0.94319229900E+01   0.14821593270E+02   0.40422527100E+01
   275    1    0.10779340560E+02   0.16169010840E+02   0.26948351400E+01
   276    1    0.12126758130E+02   0.17516428410E+02   0.40422527100E+01
   277    1    0.10779340560E+02   0.13474175700E+02   0.53896702800E+01
   278    1    0.12126758130E+02   0.14821593270E+02   0.67370878500E+01
   279    1    0.80845054200E+01   0.16169010840E+02   0.53896702800E+01
   280    1    0.94319229900E+01   0.17516428410E+02   0.67370878500E+01
   281    1    0.80845054200E+01   0.13474175700E+02   0.80845054200E+01
   282    1    0.94319229900E+01   0.14821593270E+02   0.94319229900E+01
   283    1    0.10779340560E+02   0.16169010840E+02   0.80845054200E+01
   284    1    0.12126758130E+02   0.17516428410E+02   0.94319229900E+01
   285    1    0.10779340560E+02   0.13474175700E+02   0.10779340560E+02
   286    1    0.12126758130E+02   0.14821593270E+02   0.12126758130E+02
   287    1    0.80845054200E+01   0.16169010840E+02   0.10779340560E+02
   288    1    0.94319229900E+01   0.17516428410E+02   0.12126758130E+02
   289    1    0.13474175700E+02  -0.26948351400E+01  -0.26948351400E+01
   290    1    0.14821593270E+02  -0.13474175700E+01  -0.13474175700E+01
   291    1    0.16169010840E+02   0.00000000000E+00  -0.26948351400E+01
   292    1    0.17516428410E+02   0.13474175700E+01  -0.13474175700E+01
   293    1    0.16169010840E+02  -0.26948351400E+01   0.00000000000E+00
   294    1    0.17516428410E+02  -0.13474175700E+01   0.13474175700E+01
   295    1    0.13474175700E+02   0.00000000000E+00   0.00000000000E+00
   296    1    0.14821593270E+02   0.13474175700E+01   0.13474175700E+01
   297    1    0.13474175700E+02  -0.26948351400E+01   0.26948351400E+01
   298    1    0.14821593270E+02  -0.13474175700E+01   0.40422527100E+01
   299    1    0.16169010840E+02   0.00000000000E+00   0.26948351400E+01
   300    1    0.17516428410E+02   0.13474175700E+01   0.40422527100E+01
   301    1    0.16169010840E+02  -0.26948351400E+01   0.53896702800E+01
   302    1    0.17516428410E+02  -0.13474175700E+01   0.67370878500E+01
   303    1    0.13474175700E+02   0.00000000000E+00   0.53896702800E+01
   304    1    0.14821593270E+02   0.13474175700E+01   0.67370878500E+01
   305    1    0.13474175700E+02  -0.26948351400E+01   0.80845054200E+01
   306    1    0.14821593270E+02  -0.13474175700E+01   0.94319229900E+01
   307    1    0.16169010840E+02   0.00000000000E+00   0.80845054200E+01
   308    1    0.17516428410E+02   0.13474175700E+01   0.94319229900E+01
   309    1    0.16169010840E+02  -0.26948351400E+01   0.10779340560E+02
   310    1    0.17516428410E+02  -0.13474175700E+01   0.12126758130E+02
   311    1    0.13474175700E+02   0.00000000000E+00   0.10779340560E+02
   312    1    0.14821593270E+02   0.13474175700E+01   0.12126758130E+02
   313    1    0.13474175700E+02   0.26948351400E+01  -0.26948351400E+01
   314    1    0.14821593270E+02   0.40422527100E+01  -0.13474175700E+01
   315    1    0.16169010840E+02   0.53896702800E+01  -0.26948351400E+01
   316    1    0.17516428410E+02   0.67370878500E+01  -0.13474175700E+01
   317    1    0.16169010840E+02   0.26948351400E+01   0.00000000000E+00
   318    1    0.17516428410E+02   0.40422527100E+01   0.13474175700E+01
   319    1    0.13474175700E+02   0.53896702800E+01   0.00000000000E+00
   320    1    0.14821593270E+02   0.67370878500E+01   0.13474175700E+01
   321    1    0.13474175700E+02   0.26948351400E+01   0.26948351400E+01
   322    1    0.14821593270E+02   0.40422527100E+01   0.40422527100E+01
   323    1    0.16169010840E+02   0.53896702800E+01   0.26948351400E+01
   324    1    0.17516428410E+02   0.67370878500E+01   0.40422527100E+01
   325    1    0.16169010840E+02   0.26948351400E+01   0.53896702800E+01
   326    1    0.17516428410E+02   0.40422527100E+01   0.67370878500E+01
   327    1    0.13474175700E+02   0.53896702800E+01   0.53896702800E+01
   328    1    0.14821593270E+02   0.67370878500E+01   0.67370878500E+01
   329    1    0.13474175700E+02   0.26948351400E+01   0.80845054200E+01
   330    1    0.14821593270E+02   0.40422527100E+01   0.94319229900E+01
   331    1    0.16169010840E+02   0.53896702800E+01   0.80845054200E+01
   332    1    0.17516428410E+02   0.67370878500E+01   0.94319229900E+01
   333    1    0.16169010840E+02   0.26948351400E+01   0.10779340560E+02
   334    1    0.17516428410E+02   0.40422527100E+01   0.12126758130E+02
   335    1    0.13474175700E+02   0.53896702800E+01   0.10779340560E+02
   336    1    0.14821593270E+02   0.67370878500E+01   0.12126758130E+02
   337    1    0.13474175700E+02   0.80845054200E+01  -0.26948351400E+01
   338    1    0.14821593270E+02   0.94319229900E+01  -0.13474175700E+01
   339    1    0.16169010840E+02   0.10779340560E+02  -0.26948351400E+01
   340    1    0.17516428410E+02   0.12126758130E+02  -0.13474175700E+01
   341    1    0.16169010840E+02   0.80845054200E+01   0.00000000000E+00
   342    1    0.17516428410E+02   0.94319229900E+01   0.13474175700E+01
   343    1    0.13474175700E+02   0.10779340560E+02   0.00000000000E+00
   344    1    0.14821593270E+02   0.12126758130E+02   0.13474175700E+01
   345    1    0.13474175700E+02   0.80845054200E+01   0.26948351400E+01
   346    1    0.14821593270E+02   0.94319229900E+01   0.40422527100E+01
   347    1    0.16169010840E+02   0.10779340560E+02   0.26948351400E+01
   348    1    0.17516428410E+02   0.12126758130E+02   0.40422527100E+01
   349    1    0.16169010840E+02   0.80845054200E+01   0.53896702800E+01
   350    1    0.17516428410E+02   0.94319229900E+01   0.67370878500E+01
   351    1    0.13474175700E+02   0.10779340560E+02   0.53896702800E+01
   352    1    0.14821593270E+02   0.12126758130E+02   0.67370878500E+01
   353    1    0.13474175700E+02   0.80845054200E+01   0.80845054200E+01
   354    1    0.14821593270E+02   0.94319229900E+01   0.94319229900E+01
   355    1    0.16169010840E+02   0.10779340560E+02   0.80845054200E+01
   356    1    0.17516428410E+02   0.12126758130E+02   0.94319229900E+01
   357    1    0.16169010840E+02   0.80845054200E+01   0.10779340560E+02
   358    1    0.17516428410E+02   0.94319229900E+01   0.12126758130E+02
   359    1    0.13474175700E+02   0.10779340560E+02   0.10779340560E+02
   360    1    0.14821593270E+02   0.12126758130E+02   0.12126758130E+02
   361    1    0.13474175700E+02   0.13474175700E+02  -0.26948351400E+01
   362    1    0.14821593270E+02   0.14821593270E+02  -0.13474175700E+01
   363    1    0.16169010840E+02   0.16169010840E+02  -0.26948351400E+01
   364    1    0.17516428410E+02   0.17516428410E+02  -0.13474175700E+01
   365    1    0.16169010840E+02   0.13474175700E+02   0.00000000000E+00
   366    1    0.17516428410E+02   0.14821593270E+02   0.13474175700E+01
   367    1    0.13474175700E+02   0.16169010840E+02   0.00000000000E+00
   368    1    0.14821593270E+02   0.17516428410E+02   0.13474175700E+01
   369    1    0.13474175700E+02   0.13474175700E+02   0.26948351400E+01
   370    1    0.14821593270E+02   0.14821593270E+02   0.40422527100E+01
   371    1    0.16169010840E+02   0.16169010840E+02   0.26948351400E+01
   372    1    0.17516428410E+02   0.17516428410E+02   0.40422527100E+01
   373    1    0.16169010840E+02   0.13474175700E+02   0.53896702800E+01
   374    1    0.17516428410E+02   0.14821593270E+02   0.67370878500E+01
   375    1    0.13474175700E+02   0.16169010840E+02   0.53896702800E+01
   376    1    0.14821593270E+02   0.17516428410E+02   0.67370878500E+01
   377    1    0.13474175700E+02   0.13474175700E+02   0.80845054200E+01
   378    1    0.14821593270E+02   0.14821593270E+02   0.94319229900E+01
   379    1    0.16169010840E+02   0.16169010840E+02   0.80845054200E+01
   380    1    0.17516428410E+02   0.17516428410E+02   0.94319229900E+01
   381    1    0.16169010840E+02   0.13474175700E+02   0.10779340560E+02
   382    1    0.17516428410E+02   0.14821593270E+02   0.12126758130E+02
   383    1    0.13474175700E+02   0.16169010840E+02   0.10779340560E+02
   384    1    0.14821593270E+02   0.17516428410E+02   0.12126758130E+02
   0.00000000000E+00   0.00000000000E+00   0.00000000000E+00
   0.21558679480E+02   0.00000000000E+00   0.00000000000E+00
   0.00000000000E+00   0.21558679480E+02   0.00000000000E+00
   0.00000000000E+00   0.00000000000E+00   0.16169009610E+02
}

Driver = {}

Hamiltonian = DFTB {
  SCC = No
  MaxAngularMomentum = {
    Si = "p"
  }
  EigenSolver = ELPA {
    Mode = 1
  }
  Filling = Fermi {
    Temperature [Kelvin] = 0.0
  }
  SlaterKosterFiles = {
    Si-Si = "./Si-Si.skf"
  }
  KPointsAndWeights = {
    0 0 0 1
  }
}

Options = {
  WriteAutotestTag = Yes
}

Analysis = {
  MullikenAnalysis = Yes
  CalculateForces = Yes
}

ParserOptions = {
  ParserVersion = 5
}

Parallel = {
  UseOmpThreads = Yes
}
