Geometry = GenFormat {
 3  C
  O H
     1    1    0.00000000000  -1.00000000000   0.00000000000
     2    2    0.00000000000   0.00000000000   0.78306400000
     3    2    0.00000000000   0.00000000000  -0.78306400000
}
Driver = {}

Hamiltonian = DFTB {
  SCC = Yes
  SCCTolerance = 1.000000000000000E-010
  MaxSCCIterations = 1000
  Mixer = Broyden {}
  MaxAngularMomentum = {
    O = "p"
    H = "s"
  }
  Filling = Fermi {
    Temperature [Kelvin] = 1.000000000000000E-008
  }
  SlaterKosterFiles = Type2FileNames {
    Separator = "-"
    Suffix = ".skf"
  }
  ElectricField = {
    External = {
      Direction = 0.0 1.0 0.0
      Strength [v/m] = -4.50536095E10
    }
  }
}

Options = {
  WriteAutotestTag = Yes
  CalculateForces = Yes
}

ParserOptions = {
  ParserVersion = 3
}

Parallel {
  # Allow OMP threads explicitely to test for hybrid parallelisation with
  # MPI-binary. (Check the manual before using this in production runs!)
  UseOmpThreads = Yes
}

