Geometry = GenFormat {
    2  H
  C
    1 1    0.0 0.0 1.4271041431
    2 1    0.0 0.0 0.0
   -0.2703556133E+01  -0.2906666140E+01 -0.3618948259E+00
    0.2140932670E+01   18.00000000 10
}

Hamiltonian = DFTB {
  SCC = No
  MaxAngularMomentum = {
    C = "p"
  }
  Filling = Fermi {
    Temperature [Kelvin] = 0.0
  }
  SlaterKosterFiles = {
    C-C = "./C-C.skf"
  }
  KPointsAndWeights = HelicalUniform {80 0.5}
}

Options = {
  WriteAutotestTag = Yes
}

Analysis = {
  CalculateForces = Yes
  MullikenAnalysis = Yes
}

ParserOptions = {
  ParserVersion = 8
}

Parallel {
  # Allow OMP threads explicitely to test for hybrid parallelisation with
  # MPI-binary. (Check the manual before using this in production runs!)
  UseOmpThreads = Yes
}
