Geometry = GenFormat {
28  C
 C H N O
     1    1   -0.31479360000E+01   0.25349380000E+01   0.00000000000E+00
     2    2   -0.37850900000E+01   0.26757030000E+01   0.88525300000E+00
     3    2   -0.37850900000E+01   0.26757030000E+01  -0.88525300000E+00
     4    2   -0.23721480000E+01   0.33062920000E+01   0.00000000000E+00
     5    1   -0.25411020000E+01   0.11835000000E+01   0.00000000000E+00
     6    3   -0.12474780000E+01   0.92558800000E+00   0.00000000000E+00
     7    4    0.53557040000E+01   0.84674000000E+00   0.00000000000E+00
     8    2    0.53448860000E+01   0.18267930000E+01   0.00000000000E+00
     9    1    0.25456200000E+01  -0.14927910000E+01   0.00000000000E+00
    10    2    0.23677900000E+01  -0.25775770000E+01   0.00000000000E+00
    11    1    0.38490640000E+01  -0.10101410000E+01   0.00000000000E+00
    12    2    0.47047890000E+01  -0.16960620000E+01   0.00000000000E+00
    13    1    0.40661340000E+01   0.37846200000E+00   0.00000000000E+00
    14    1    0.29806530000E+01   0.12736740000E+01   0.00000000000E+00
    15    2    0.31677420000E+01   0.23570320000E+01   0.00000000000E+00
    16    1    0.16801460000E+01   0.77961400000E+00   0.00000000000E+00
    17    2    0.81994900000E+00   0.14657460000E+01   0.00000000000E+00
    18    1    0.14392370000E+01  -0.61227900000E+00   0.00000000000E+00
    19    1    0.10132200000E+00  -0.11665770000E+01   0.00000000000E+00
    20    2    0.23164000000E-01  -0.22647210000E+01   0.00000000000E+00
    21    1   -0.10791340000E+01  -0.47177000000E+00   0.00000000000E+00
    22    1   -0.24337180000E+01  -0.10769840000E+01   0.00000000000E+00
    23    4   -0.28103540000E+01  -0.22448160000E+01   0.00000000000E+00
    24    3   -0.33055700000E+01   0.29025000000E-01   0.00000000000E+00
    25    1   -0.47348070000E+01  -0.63221000000E-01   0.00000000000E+00
    26    2   -0.51737560000E+01   0.42034500000E+00   0.89381000000E+00
    27    2   -0.51737560000E+01   0.42034500000E+00  -0.89381000000E+00
    28    2   -0.50098790000E+01  -0.11277600000E+01   0.00000000000E+00
}

Driver = {}

Hamiltonian = DFTB {
  SCC = No
  MaxAngularMomentum = {
    C = "p"
    H = "s"
    N = "p"
    O = "p"
  }
  Filling = Fermi {
    Temperature [Kelvin] = 1.000000000000000E-008
  }
  SlaterKosterFiles = Type2FileNames {
    Separator = "-"
    Suffix = ".skf"
  }
}

Options = {
  MullikenAnalysis = Yes
  CalculateForces = Yes
  WriteAutotestTag = Yes
  AtomResolvedEnergies = Yes
}

ParserOptions = {
  ParserVersion = 3
}

Parallel {
  # Allow OMP threads explicitely to test for hybrid parallelisation with
  # MPI-binary. (Check the manual before using this in production runs!)
  UseOmpThreads = Yes
}

