# Needs the equilibrium geometry, at which the Hessian had been calculated
Geometry = GenFormat {
  <<< geo.gen
}

# You need to specify the SK-files, as the mass of the elements is needed
SlaterKosterFiles = Type2FileNames {
  Prefix = "slakos/origin/mio-1-1/"
  Separator = "-"
  Suffix = ".skf"
}

# Include the Hessian, which was calculated by DFTB+
Hessian = {
  <<< "hessian.out"
}

# Lock the phase and degenerate eigenvectors for test purposes
PhaseLock = Yes

# This file uses the 3rd input format of the modes code
InputVersion = 3
