Geometry = GenFormat {
2  S
 Si
     1    1    0.00000000000E+00   0.00000000000E+00   0.00000000000E+00
     2    1    0.13567730000E+01   0.13567730000E+01   0.13567730000E+01
   0.00000000000E+00   0.00000000000E+00   0.00000000000E+00
   0.27135460000E+01   0.27135460000E+01   0.00000000000E+00
   0.00000000000E+00   0.27135460000E+01   0.27135460000E+01
   0.27135460000E+01   0.00000000000E+00   0.27135460000E+01
}

Driver = {}

Hamiltonian = DFTB {
  Scc = Yes
  MaxAngularMomentum = {
    Si = "p"
  }
  Charge = 0.000000000000000E+000
  Filling = Fermi {
    Temperature [Kelvin] = 1.000000000000000E-008
  }
  SlaterKosterFiles = {
    Si-Si = "./Si-Si.skf"
  }
  KPointsAndWeights = {
 0.250000000000000 0.250000000000000 0.250000000000000 1.00000000000000
 -0.250000000000000 0.250000000000000 0.250000000000000 1.00000000000000
 0.250000000000000 -0.250000000000000 0.250000000000000 1.00000000000000
 -0.250000000000000 -0.250000000000000 0.250000000000000 1.00000000000000
  }
}

Analysis {
  CalculateForces = Yes
  MullikenAnalysis = Yes
  AtomResolvedEnergies = Yes
}

Options = {
  WriteAutotestTag = No
}

ParserOptions = {
  ParserVersion = 8
}
