Geometry = GenFormat { # CH3 radical
    4  C
  C  H
    1 1      0.00000000      0.00000000      0.00000000
    2 2     -0.44385881     -0.88731306     -0.44385881
    3 2      0.88731306      0.44385881     -0.44385881
    4 2     -0.44385881      0.44385881      0.88731306
}

Hamiltonian = DFTB {
  SCC = Yes
  ShellResolvedSCC = Yes
  SCCTolerance = 1.0E-9
  MaxAngularMomentum = {
    C = "p"
    H = "s"
  }
  Charge = 0.0
  SpinPolarisation = nonColinear {
    InitialSpins = {
      AtomSpin = {
	Atoms = 1
	SpinPerAtom = {
	  1 0 0
	}
      }
    }
  }
  SpinConstants = { # From C. Koehler thesis
    C = {
        -0.031 -0.025
        -0.025 -0.023
    }
    H = {-0.072}
  }
  Filling = Fermi {
    Temperature [Kelvin] = 500
  }
  SlaterKosterFiles = Type2FileNames {
Prefix = {slakos/origin/mio-1-1/}
    Separator = "-"
    Suffix = ".skf"
  }
  OrbitalPotential = {
   Functional = {pSIC}
   C = {
     Shells = {1 2} # sp block on the C
     UJ = 0.178371875 # shell weighted average of 0.5*((Us-Wss)+3(Upp-Wpp))/(4)
   }
  }
}

Analysis = {
  Polarisability = {
    Static = Yes
  }
}

Options = {
  WriteAutotestTag = Yes
}

ParserOptions = {
  ParserVersion = 9
}

Parallel {
  # Allow OMP threads explicitely to test for hybrid parallelisation with
  # MPI-binary. (Check the manual before using this in production runs!)
  UseOmpThreads = Yes
}
