Geometry = xyzFormat {
6

 N   0.00000000000000E+00  0.00000000000000E+00 -2.20393884369701E+00
 H   0.00000000000000E+00  9.48699934155849E-01 -2.55249081713829E+00
 H   8.21597939390209E-01 -4.74349964432039E-01 -2.55249081713829E+00
 H  -8.21597939390209E-01 -4.74349964432039E-01 -2.55249081713829E+00
 Br  0.00000000000000E+00  0.00000000000000E+00  1.52974987345356E-01
 F   0.00000000000000E+00  0.00000000000000E+00  1.97010385869951E+00
}

Driver {}

Hamiltonian = xtb {
  SCCTolerance = 1.0E-8
  Method = "GFN1-xTB"
}

Options { WriteAutotestTag = Yes }
Analysis { PrintForces = Yes }
ParserOptions { ParserVersion = 14 }
Parallel { UseOmpThreads = Yes }
