Geometry = GenFormat {
   30  C
 N  C  H  O 
    1   1       0.00000000       0.00000000       0.00000000
    2   2       0.00000000       0.00000000       1.33200000
    3   1       1.15869600       0.00000000       1.99122600
    4   2       1.15343800       0.00000000       3.32371600
    5   1       0.12258100       0.00000000       4.13125900
    6   2      -1.02650900       0.00000000       3.45958000
    7   2      -1.17971900       0.00000000       2.09334300
    8   1      -2.51701900       0.00000000       1.74589200
    9   2      -3.13357200       0.00000000       2.86761600
   10   1      -2.29477200       0.00000000       3.95220300
   11   3       2.12786800       0.00000000       3.77960000
   12   3      -4.19822800       0.00000000       2.98763400
   13   3      -2.54927200       0.00000000       4.91203600
   14   3       0.86081100       0.00000000      -0.50695700
   15   3      -0.86479500       0.00000000      -0.48558800
   16   4       2.78374100       0.00000000      -1.33221600
   17   2       3.82239700       0.00000000      -0.72169400
   18   1       3.83031200       0.00000000       0.65248300
   19   2       4.92792000       0.00000000       1.46680700
   20   1       6.12009800       0.00000000       0.79242600
   21   2       6.20987200       0.00000000      -0.57883900
   22   2       5.14004800       0.00000000      -1.37069500
   23   4       4.86530700       0.00000000       2.66226800
   24   2       5.19280500       0.00000000      -2.87166800
   25   3       6.93540900       0.00000000       1.36050100
   26   3       2.93060100       0.00000000       1.11907000
   27   3       7.21112200       0.00000000      -0.96739300
   28   3       4.69216500      -0.87317200      -3.27495100
   29   3       4.69064000       0.87230200      -3.27493700
   30   3       6.21928800       0.00088600      -3.22100900
}

Driver = VelocityVerlet {
  TimeStep [Femtosecond] = 1.0
  MovedAtoms = 1:-1
  Thermostat = Berendsen {
    TimeScale [fs] = 100
    AdaptFillingTemp = Yes
    Temperature [Kelvin] = TemperatureProfile {
        constant     100  600.0
        linear       100  700.0
        exponential  200  500.0    
    }
  }
  Velocities [AA/ps] = {
         9.91707544      2.52822327      6.10195119   
         1.06108755     -1.80871437      3.95628084
        -2.58057347      2.74041167     -4.70088584
        -3.33424058      4.73013807      3.53050485
         5.41219257      8.01241308     -4.40565907
        -1.32395235     -2.49559161     -3.07631371
        10.31928793      2.83790069     -5.32680090
         4.46470995      0.42574228     -3.77452660
       -10.86764269      4.28293906     -2.86064241
         7.26800729      2.05194548     -3.91945838
        37.89992714     -2.08243210    -11.99767164
        25.73297218    -30.95948397     31.26691045
       -25.19996633     11.75903849     19.68075996
       -25.26609859     26.64833577     -0.78074667
       -27.29810681     21.48555366     58.42199745
        -0.72886401      4.64875365      6.25813838
       -11.73902268    -13.62263975      2.69998377
         0.02747158      9.26123417      4.45311205
        -3.91622493     -0.35703294     -2.42881899
        -2.97996620     -2.23279678     -0.21391321
         0.38507649     -2.35146375     -0.00732459
        -4.82970873     -5.49748152     -4.39915290
         2.69985439    -16.72773558     -8.37524356
        -2.21639532      2.88792593     -0.42459008
         8.57015217    -26.60856239     -5.13177580
         3.42326352    -26.11455570      4.10918310
        19.57766250    -23.13583330     28.36307445
        13.20047791      3.13777063     29.66242526
       -18.56146256     56.49301574     28.09392963
       -27.26300528      0.33622906     41.02743533
  }
  MDRestartFrequency = 10
}	       			


Hamiltonian = DFTB {
  SCC = Yes
  SlaterKosterFiles = Type2FileNames {
    Prefix = "./"
    Separator = "-"
    Suffix = ".skf"
  }
  MaxAngularMomentum = {
    N = "p"
    O = "p"
    C = "p"
    H = "s"
  }
  Dispersion = SlaterKirkwood {
    PolarRadiusCharge = HybridDependentPol {
      C = {
        CovalentRadius [Angstrom] = 0.6
        HybridPolarisations [Angstrom^3,Angstrom,] = {
	  1.382 1.382 1.382 1.064 0.000 0.000   3.8 3.8 3.8 3.8 3.8 3.8   2.50
	}
      }
      H = {
	CovalentRadius [Angstrom] = 0.6
	HybridPolarisations [Angstrom^3,Angstrom,] = {
	  0.386 0.386 0.000 0.000 0.000 0.000   3.5 3.5 3.5 3.5 3.5 3.5   0.80
	}
      }
      N = {
	CovalentRadius [Angstrom] = 0.6
	HybridPolarisations [Angstrom^3,Angstrom,] = {
	  1.030 1.030 1.090 1.090 0.000 0.000   3.8 3.8 3.8 3.8 3.8 3.8   2.82
	}
      }
      O = {
	CovalentRadius [Angstrom] = 0.6
	HybridPolarisations [Angstrom^3,Angstrom,] = {
	  0.560 0.560 0.000 0.000 0.000 0.000   3.8 3.8 3.8 3.8 3.8 3.8   3.15
	}
      }
    }
  }
}

Options = {
  WriteAutotestTag = Yes
}

ParserOptions = {
  ParserVersion = 4
}

Parallel {
  # Allow OMP threads explicitely to test for hybrid parallelisation with
  # MPI-binary. (Check the manual before using this in production runs!)
  UseOmpThreads = Yes
}

