Geometry = GenFormat {
224  S
 C N Si
     1    2    0.10453048000E+02   0.89244300000E+00   0.22015280000E+01
     2    2    0.10616798000E+02   0.69656600000E+00   0.81826590000E+01
     3    2    0.56221270000E+01   0.63715900000E+00   0.52682030000E+01
     4    2    0.57678280000E+01   0.47552700000E+00   0.11095873000E+02
     5    2    0.14108840000E+01   0.36176000000E-01   0.87933200000E+00
     6    2    0.10743010000E+01   0.84230000000E-01   0.40150730000E+01
     7    2    0.10877720000E+01   0.13846900000E+00   0.71056270000E+01
     8    2    0.11689790000E+01   0.65778000000E-01   0.10111626000E+02
     9    3    0.88359180000E+01   0.83423900000E+00   0.16333750000E+01
    10    3    0.82619200000E+01   0.87987000000E+00   0.83481270000E+01
    11    3    0.73766380000E+01   0.78626900000E+00   0.54420980000E+01
    12    3    0.75259780000E+01   0.69980200000E+00   0.11230179000E+02
    13    2    0.78448200000E+01   0.16212700000E+01   0.43708200000E+00
    14    2    0.81363970000E+01   0.15842640000E+01   0.40204370000E+01
    15    2    0.76809960000E+01   0.16719850000E+01   0.69330230000E+01
    16    2    0.82254400000E+01   0.16259810000E+01   0.98974030000E+01
    17    3    0.11207539000E+02   0.24677090000E+01   0.23137390000E+01
    18    3    0.11283919000E+02   0.23201070000E+01   0.84107590000E+01
    19    2    0.12162143000E+02   0.26085500000E+01   0.81716700000E+00
    20    2    0.12114319000E+02   0.24741480000E+01   0.38420750000E+01
    21    2    0.12254150000E+02   0.26118040000E+01   0.69334290000E+01
    22    2    0.12063810000E+02   0.22312000000E+01   0.10035744000E+02
    23    3    0.44651220000E+01   0.19462460000E+01   0.54721160000E+01
    24    3    0.46156940000E+01   0.17723970000E+01   0.11430525000E+02
    25    2    0.37373090000E+01   0.14556900000E+01   0.72743300000E+00
    26    2    0.34920730000E+01   0.19024790000E+01   0.39562420000E+01
    27    2    0.35347020000E+01   0.17395760000E+01   0.69948430000E+01
    28    2    0.35344520000E+01   0.18637780000E+01   0.99981600000E+01
    29    3    0.13820200000E+01   0.17556730000E+01   0.79880000000E+00
    30    3    0.17359630000E+01   0.17596380000E+01   0.70121030000E+01
    31    3    0.17111480000E+01   0.17295280000E+01   0.39346880000E+01
    32    3    0.17573280000E+01   0.17273250000E+01   0.10052180000E+02
    33    3    0.11620619000E+02   0.32491660000E+01   0.53638550000E+01
    34    3    0.11568393000E+02   0.31218290000E+01   0.11507514000E+02
    35    3    0.42254030000E+01   0.26004000000E+01   0.25227580000E+01
    36    3    0.41423330000E+01   0.25579040000E+01   0.84713370000E+01
    37    3    0.89075570000E+01   0.31860140000E+01   0.40071990000E+01
    38    3    0.89785370000E+01   0.32194790000E+01   0.10044331000E+02
    39    2    0.97809090000E+01   0.34598690000E+01   0.24349800000E+01
    40    2    0.98852870000E+01   0.33310240000E+01   0.55052350000E+01
    41    2    0.99289870000E+01   0.34043250000E+01   0.85269680000E+01
    42    2    0.98453000000E+01   0.33600330000E+01   0.11634217000E+02
    43    3    0.68713600000E+01   0.30443930000E+01   0.53191000000E+00
    44    3    0.66881810000E+01   0.31495160000E+01   0.70530340000E+01
    45    2    0.59117820000E+01   0.29587730000E+01   0.26998640000E+01
    46    2    0.55918980000E+01   0.32983220000E+01   0.56404510000E+01
    47    2    0.58396730000E+01   0.29022300000E+01   0.85974000000E+01
    48    2    0.56719170000E+01   0.31700870000E+01   0.11564450000E+02
    49    2    0.12529750000E+01   0.24734870000E+01   0.23542260000E+01
    50    2    0.12457110000E+01   0.25146280000E+01   0.54735680000E+01
    51    2    0.12470020000E+01   0.25448740000E+01   0.85349900000E+01
    52    2    0.12491590000E+01   0.25145600000E+01   0.11566430000E+02
    53    3    0.94164160000E+01   0.42974290000E+01   0.88458500000E+00
    54    3    0.94444000000E+01   0.42091830000E+01   0.69932680000E+01
    55    3    0.60854960000E+01   0.40905550000E+01   0.41182290000E+01
    56    3    0.61126140000E+01   0.39636590000E+01   0.10002896000E+02
    57    2    0.76914590000E+01   0.45199080000E+01   0.79610500000E+00
    58    2    0.77705240000E+01   0.44936950000E+01   0.41267180000E+01
    59    2    0.77417180000E+01   0.45437150000E+01   0.70991310000E+01
    60    2    0.77688220000E+01   0.44546050000E+01   0.10039681000E+02
    61    2    0.12345468000E+02   0.48573040000E+01   0.52178360000E+01
    62    2    0.12294357000E+02   0.46983490000E+01   0.11253062000E+02
    63    2    0.35276430000E+01   0.41229530000E+01   0.21062330000E+01
    64    2    0.34851470000E+01   0.41629410000E+01   0.82358550000E+01
    65    3    0.13392010000E+01   0.41923400000E+01   0.54369800000E+01
    66    3    0.13530680000E+01   0.41959490000E+01   0.11558864000E+02
    67    3    0.17771390000E+01   0.41178020000E+01   0.23111550000E+01
    68    3    0.17510180000E+01   0.42073530000E+01   0.84889170000E+01
    69    2    0.10457143000E+02   0.57214500000E+01   0.96850000000E+00
    70    2    0.10148485000E+02   0.61490750000E+01   0.39896070000E+01
    71    2    0.10352926000E+02   0.57240590000E+01   0.69391740000E+01
    72    2    0.10012469000E+02   0.60415120000E+01   0.99871250000E+01
    73    3    0.11223285000E+02   0.61813200000E+01   0.54284790000E+01
    74    3    0.11432745000E+02   0.60146210000E+01   0.11886713000E+02
    75    2    0.53121480000E+01   0.62915260000E+01   0.87630500000E+00
    76    2    0.51482080000E+01   0.55812180000E+01   0.39034030000E+01
    77    2    0.54266960000E+01   0.61023590000E+01   0.68316380000E+01
    78    2    0.53230950000E+01   0.55118990000E+01   0.97362030000E+01
    79    3    0.43380870000E+01   0.56898150000E+01   0.23199270000E+01
    80    3    0.44719750000E+01   0.56050590000E+01   0.82247950000E+01
    81    2    0.13213860000E+01   0.49243530000E+01   0.79000300000E+00
    82    2    0.14409660000E+01   0.48789420000E+01   0.38883330000E+01
    83    2    0.13422230000E+01   0.50239010000E+01   0.69423240000E+01
    84    2    0.14741890000E+01   0.50083800000E+01   0.10058922000E+02
    85    3    0.85113680000E+01   0.59606530000E+01   0.44666470000E+01
    86    3    0.82557280000E+01   0.61269790000E+01   0.10007571000E+02
    87    3    0.68951030000E+01   0.59552650000E+01   0.36109000000E+00
    88    3    0.71913320000E+01   0.62129040000E+01   0.70722870000E+01
    89    3    0.10357769000E+02   0.68452680000E+01   0.23543120000E+01
    90    3    0.10703479000E+02   0.63478660000E+01   0.84558230000E+01
    91    3    0.47428910000E+01   0.65270190000E+01   0.52895840000E+01
    92    3    0.45191080000E+01   0.74022970000E+01   0.12096298000E+02
    93    2    0.88442380000E+01   0.76698140000E+01   0.21178830000E+01
    94    2    0.79210080000E+01   0.69933100000E+01   0.56708750000E+01
    95    2    0.78037020000E+01   0.70504810000E+01   0.85444380000E+01
    96    2    0.76801890000E+01   0.69162140000E+01   0.11487510000E+02
    97    1    0.11778969000E+02   0.84841770000E+01   0.23130010000E+01
    98    1    0.12171050000E+02   0.78115030000E+01   0.54151560000E+01
    99    1    0.11540498000E+02   0.79595630000E+01   0.86125450000E+01
   100    1    0.12390180000E+02   0.75549990000E+01   0.11681889000E+02
   101    1    0.29190150000E+01   0.69198910000E+01   0.23659630000E+01
   102    1    0.26551130000E+01   0.72449170000E+01   0.53628330000E+01
   103    1    0.29457360000E+01   0.71143950000E+01   0.84805880000E+01
   104    1    0.27373620000E+01   0.72046070000E+01   0.11707798000E+02
   105    3    0.13326764000E+02   0.83038380000E+01   0.75880400000E+00
   106    3    0.12662138000E+02   0.86815790000E+01   0.68511990000E+01
   107    3    0.18259740000E+01   0.65546550000E+01   0.38234000000E+01
   108    3    0.21768210000E+01   0.65707010000E+01   0.10083428000E+02
   109    3    0.12941301000E+02   0.84626410000E+01   0.38541070000E+01
   110    3    0.12521192000E+02   0.84258380000E+01   0.10147647000E+02
   111    3    0.18294080000E+01   0.65855780000E+01   0.88372400000E+00
   112    3    0.20970810000E+01   0.65368630000E+01   0.69717510000E+01
   113    1    0.11057583000E+02   0.97503440000E+01   0.20197710000E+01
   114    1    0.10624928000E+02   0.89838150000E+01   0.84009540000E+01
   115    1    0.56025960000E+01   0.85649850000E+01   0.49298970000E+01
   116    1    0.54732720000E+01   0.87504920000E+01   0.11422356000E+02
   117    1    0.10830000000E-01   0.74247310000E+01   0.17121110000E+01
   118    1    0.27900000000E-03   0.74350500000E+01   0.30427220000E+01
   119    1    0.48002400000E+00   0.80953210000E+01   0.98891110000E+01
   120    1    0.10724230000E+01   0.91726090000E+01   0.97958580000E+01
   121    3    0.89564810000E+01   0.93746540000E+01   0.20324060000E+01
   122    3    0.84549010000E+01   0.86765800000E+01   0.84771430000E+01
   123    3    0.78063000000E+01   0.86696160000E+01   0.54341630000E+01
   124    3    0.73182640000E+01   0.86166310000E+01   0.11446555000E+02
   125    1    0.77332070000E+01   0.99604210000E+01   0.80142000000E+00
   126    1    0.87065060000E+01   0.98027700000E+01   0.42160710000E+01
   127    1    0.77275720000E+01   0.95958460000E+01   0.70280100000E+01
   128    1    0.82187050000E+01   0.96305990000E+01   0.10072676000E+02
   129    3    0.13430907000E+02   0.11052654000E+02   0.22050960000E+01
   130    3    0.11473627000E+02   0.10690214000E+02   0.87155410000E+01
   131    1    0.14125659000E+02   0.99724170000E+01   0.47818500000E+00
   132    1    0.13518204000E+02   0.10237563000E+02   0.39069950000E+01
   133    1    0.12928109000E+02   0.10489457000E+02   0.71120240000E+01
   134    1    0.12475892000E+02   0.10234445000E+02   0.10198112000E+02
   135    1    0.50551140000E+01   0.96832110000E+01   0.49081090000E+01
   136    3    0.47778890000E+01   0.10392248000E+02   0.10917093000E+02
   137    1    0.34303680000E+01   0.11342708000E+02   0.11896985000E+02
   138    1    0.18079400000E+01   0.97169980000E+01   0.49197840000E+01
   139    1    0.23639910000E+01   0.86638720000E+01   0.52208380000E+01
   140    1    0.41299620000E+01   0.10394467000E+02   0.91192220000E+01
   141    3    0.15338980000E+01   0.10186526000E+02   0.11426540000E+01
   142    3    0.14558417000E+02   0.11423024000E+02   0.72074050000E+01
   143    3    0.57655100000E+00   0.10914981000E+02   0.42641850000E+01
   144    3    0.20035910000E+01   0.10732084000E+02   0.96200560000E+01
   145    3    0.12216951000E+02   0.11334015000E+02   0.52768020000E+01
   146    3    0.13576211000E+02   0.11006006000E+02   0.11359810000E+02
   147    3    0.44144810000E+01   0.12529491000E+02   0.60257500000E+00
   148    3    0.49139780000E+01   0.11893704000E+02   0.83341890000E+01
   149    1    0.95171840000E+01   0.10663459000E+02   0.48071920000E+01
   150    1    0.85461900000E+01   0.10926147000E+02   0.10339049000E+02
   151    1    0.11623304000E+02   0.10990994000E+02   0.18030140000E+01
   152    1    0.10355773000E+02   0.11513947000E+02   0.53651830000E+01
   153    1    0.10148059000E+02   0.11975139000E+02   0.85809150000E+01
   154    1    0.90298230000E+01   0.11993032000E+02   0.93658870000E+01
   155    3    0.80181370000E+01   0.11465198000E+02   0.12064496000E+02
   156    1    0.73886410000E+01   0.10864589000E+02   0.71605690000E+01
   157    1    0.40590860000E+01   0.12098019000E+02   0.49346460000E+01
   158    1    0.45289550000E+01   0.10959935000E+02   0.49080480000E+01
   159    1    0.69203420000E+01   0.12069468000E+02   0.73975890000E+01
   160    1    0.60265340000E+01   0.12103916000E+02   0.11551384000E+02
   161    1    0.82366500000E+00   0.11743476000E+02   0.25098160000E+01
   162    1    0.14638230000E+02   0.12433789000E+02   0.56307440000E+01
   163    1    0.11440770000E+01   0.11773535000E+02   0.83945820000E+01
   164    1    0.22611540000E+01   0.11636421000E+02   0.11264208000E+02
   165    3    0.10867420000E+02   0.12416489000E+02   0.96478500000E+00
   166    3    0.99563110000E+01   0.12995173000E+02   0.69585630000E+01
   167    3    0.73690510000E+01   0.15060521000E+02   0.42115060000E+01
   168    3    0.62823500000E+01   0.13273806000E+02   0.10157526000E+02
   169    1    0.90616370000E+01   0.12678279000E+02   0.70120400000E+00
   170    1    0.85367830000E+01   0.13817093000E+02   0.11812470000E+01
   171    1    0.78788930000E+01   0.13306542000E+02   0.76145060000E+01
   172    1    0.81189490000E+01   0.13254743000E+02   0.91531520000E+01
   173    1    0.13192612000E+02   0.12888101000E+02   0.52312340000E+01
   174    1    0.14114242000E+02   0.12740617000E+02   0.11213768000E+02
   175    1    0.39064880000E+01   0.13292631000E+02   0.20944350000E+01
   176    1    0.38909480000E+01   0.13305610000E+02   0.81744780000E+01
   177    3    0.12230250000E+01   0.13743419000E+02   0.54225620000E+01
   178    3    0.12512870000E+01   0.13211755000E+02   0.11459596000E+02
   179    3    0.17037820000E+01   0.13431795000E+02   0.23257210000E+01
   180    3    0.20016840000E+01   0.13402854000E+02   0.83872120000E+01
   181    2    0.11612534000E+02   0.13767768000E+02   0.30080800000E+00
   182    2    0.10657607000E+02   0.15072517000E+02   0.31537390000E+01
   183    2    0.10973514000E+02   0.14370682000E+02   0.66638570000E+01
   184    2    0.10573773000E+02   0.15258532000E+02   0.97197180000E+01
   185    3    0.12518697000E+02   0.14395082000E+02   0.59618040000E+01
   186    3    0.13070860000E+02   0.14046807000E+02   0.11807473000E+02
   187    2    0.58399660000E+01   0.15198211000E+02   0.55727800000E+00
   188    2    0.56914330000E+01   0.15101458000E+02   0.40662390000E+01
   189    2    0.56208800000E+01   0.15413709000E+02   0.70218220000E+01
   190    2    0.55415360000E+01   0.14807491000E+02   0.99549170000E+01
   191    3    0.47447690000E+01   0.14870541000E+02   0.26186190000E+01
   192    3    0.46812440000E+01   0.14987084000E+02   0.84240580000E+01
   193    2    0.12930500000E+01   0.14124836000E+02   0.72129400000E+00
   194    2    0.16445860000E+01   0.14314698000E+02   0.38684030000E+01
   195    2    0.16438670000E+01   0.14362972000E+02   0.69474410000E+01
   196    2    0.17166950000E+01   0.14193918000E+02   0.99994520000E+01
   197    3    0.90274900000E+01   0.14908547000E+02   0.26115690000E+01
   198    3    0.88078310000E+01   0.15263955000E+02   0.97393160000E+01
   199    3    0.75651430000E+01   0.15236742000E+02   0.40476400000E+00
   200    3    0.73421090000E+01   0.15287965000E+02   0.70924260000E+01
   201    3    0.11343364000E+02   0.16584175000E+02   0.29319010000E+01
   202    3    0.11512308000E+02   0.16352850000E+02   0.88392550000E+01
   203    3    0.49942900000E+01   0.15956827000E+02   0.54723250000E+01
   204    3    0.51469310000E+01   0.15790128000E+02   0.11356845000E+02
   205    2    0.83087750000E+01   0.16198335000E+02   0.16810470000E+01
   206    2    0.78663320000E+01   0.16018233000E+02   0.55812150000E+01
   207    2    0.80694680000E+01   0.16137555000E+02   0.84198260000E+01
   208    2    0.81467130000E+01   0.15983853000E+02   0.11224102000E+02
   209    2    0.13000834000E+02   0.16832477000E+02   0.32000090000E+01
   210    2    0.13539878000E+02   0.15810004000E+02   0.58787750000E+01
   211    2    0.13263899000E+02   0.16399769000E+02   0.87696350000E+01
   212    2    0.13882756000E+02   0.15586508000E+02   0.11635361000E+02
   213    2    0.35218620000E+01   0.16091314000E+02   0.25284910000E+01
   214    2    0.32704190000E+01   0.16043344000E+02   0.54792760000E+01
   215    2    0.33072510000E+01   0.16050529000E+02   0.85643430000E+01
   216    2    0.34412120000E+01   0.15901130000E+02   0.11619909000E+02
   217    3    0.54724600000E+00   0.15630444000E+02   0.40311500000E+00
   218    3    0.14143180000E+02   0.16508721000E+02   0.73045330000E+01
   219    3    0.24080870000E+01   0.15891523000E+02   0.39358320000E+01
   220    3    0.24346910000E+01   0.15800837000E+02   0.10127299000E+02
   221    3    0.14125703000E+02   0.16492506000E+02   0.43932750000E+01
   222    3    0.14237946000E+02   0.16373048000E+02   0.10167405000E+02
   223    3    0.31246300000E+01   0.16688806000E+02   0.89953200000E+00
   224    3    0.23924880000E+01   0.15925107000E+02   0.70170370000E+01
   0.00000000000E+00   0.00000000000E+00   0.00000000000E+00
   0.14674240000E+02   0.00000000000E+00   0.00000000000E+00
   0.00000000000E+00   0.16944361000E+02   0.00000000000E+00
   0.00000000000E+00   0.00000000000E+00   0.12302475000E+02
}

Driver = {}

Hamiltonian = DFTB {
  SCC = No
  MaxAngularMomentum = {
    C = "p"
    N = "p"
    Si = "p"
  }
  Filling = Fermi {
    Temperature [Kelvin] = 1.000000000000000E-008
  }
  SlaterKosterFiles = Type2FileNames {
    Separator = "-"
    Suffix = ".skf"
  }

  KPointsAndWeights = {
    0.000000000000000E+000 0.000000000000000E+000 0.000000000000000E+000 1.00000000000000
  }
}

Options = {
  MullikenAnalysis = Yes
  CalculateForces = Yes
  WriteAutotestTag = Yes
  AtomResolvedEnergies = Yes
}

ParserOptions = {
  ParserVersion = 3
}

Parallel {
  # Allow OMP threads explicitely to test for hybrid parallelisation with
  # MPI-binary. (Check the manual before using this in production runs!)
  UseOmpThreads = Yes
}

