#Geometry =  GenFormat {
#  <<< "structure_1.gen" 
#}

Driver = {}
    
Hamiltonian = DFTB {
  SCC = Yes
  SCCTolerance = 1.00E-8
  MaxAngularMomentum {
    H = "s"
    C = "p"
  }
  SlaterKosterFiles = Type2FileNames {
    #Prefix = "/home/alex/SK_Parameter_Sets/mio/mio-1-1/"
    Separator = "-"
    Suffix  = ".skf"
  }
  KPointsAndWeights = SuperCellFolding {
    1 0 0
    0 1 0
    0 0 1
    0. 0. 0.
  }
}

Options = {
  WriteAutotestTag = Yes
   WriteDetailedOut=Yes
   TimingVerbosity = 1
}

Analysis = {
  CalculateForces = Yes
}

ParserOptions = {
  ParserVersion = 6
}

Parallel {
  # Allow OMP threads explicitely to test for hybrid parallelisation with
  # MPI-binary. (Check the manual before using this in production runs!)
  UseOmpThreads = Yes
}

