Geometry = GenFormat {
160  C
C
1    1     -1.047000000000      1.815000000000     -3.689000000000
2    1     -0.474000000000      0.527000000000     -3.689000000000
3    1     -0.474000000000      4.511000000000     -3.689000000000
4    1      0.573000000000      5.454000000000     -3.689000000000
5    1      1.914000000000     -0.852000000000     -3.689000000000
6    1      3.315000000000     -0.705000000000     -3.689000000000
7    1      3.315000000000      5.743000000000     -3.689000000000
8    1      4.536000000000      5.038000000000     -3.689000000000
9    1      5.364000000000      1.141000000000     -3.689000000000
10    1      5.658000000000      2.519000000000     -3.689000000000
11    1     -1.122000000000      2.519000000000     -2.460000000000
12    1     -0.828000000000      3.897000000000     -2.460000000000
13    1      0.000000000000      0.000000000000     -2.460000000000
14    1      1.221000000000     -0.705000000000     -2.460000000000
15    1      1.221000000000      5.743000000000     -2.460000000000
16    1      2.622000000000      5.890000000000     -2.460000000000
17    1      3.962000000000     -0.416000000000     -2.460000000000
18    1      5.010000000000      0.527000000000     -2.460000000000
19    1      5.010000000000      4.511000000000     -2.460000000000
20    1      5.583000000000      3.223000000000     -2.460000000000
1    1     -1.047000000000      1.815000000000     -1.229000000000
2    1     -0.474000000000      0.527000000000     -1.229000000000
3    1     -0.474000000000      4.511000000000     -1.229000000000
4    1      0.573000000000      5.454000000000     -1.229000000000
5    1      1.914000000000     -0.852000000000     -1.229000000000
6    1      3.315000000000     -0.705000000000     -1.229000000000
7    1      3.315000000000      5.743000000000     -1.229000000000
8    1      4.536000000000      5.038000000000     -1.229000000000
9    1      5.364000000000      1.141000000000     -1.229000000000
10    1      5.658000000000      2.519000000000     -1.229000000000
11    1     -1.122000000000      2.519000000000      0.000000000000
12    1     -0.828000000000      3.897000000000      0.000000000000
13    1      0.000000000000      0.000000000000      0.000000000000
14    1      1.221000000000     -0.705000000000      0.000000000000
15    1      1.221000000000      5.743000000000      0.000000000000
16    1      2.622000000000      5.890000000000      0.000000000000
17    1      3.962000000000     -0.416000000000      0.000000000000
18    1      5.010000000000      0.527000000000      0.000000000000
19    1      5.010000000000      4.511000000000      0.000000000000
20    1      5.583000000000      3.223000000000      0.000000000000
1    1     -1.047000000000      1.815000000000      1.231000000000
2    1     -0.474000000000      0.527000000000      1.231000000000
3    1     -0.474000000000      4.511000000000      1.231000000000
4    1      0.573000000000      5.454000000000      1.231000000000
5    1      1.914000000000     -0.852000000000      1.231000000000
6    1      3.315000000000     -0.705000000000      1.231000000000
7    1      3.315000000000      5.743000000000      1.231000000000
8    1      4.536000000000      5.038000000000      1.231000000000
9    1      5.364000000000      1.141000000000      1.231000000000
10    1      5.658000000000      2.519000000000      1.231000000000
11    1     -1.122000000000      2.519000000000      2.460000000000
12    1     -0.828000000000      3.897000000000      2.460000000000
13    1      0.000000000000      0.000000000000      2.460000000000
14    1      1.221000000000     -0.705000000000      2.460000000000
15    1      1.221000000000      5.743000000000      2.460000000000
16    1      2.622000000000      5.890000000000      2.460000000000
17    1      3.962000000000     -0.416000000000      2.460000000000
18    1      5.010000000000      0.527000000000      2.460000000000
19    1      5.010000000000      4.511000000000      2.460000000000
20    1      5.583000000000      3.223000000000      2.460000000000
1    1     -1.047000000000      1.815000000000      3.691000000000
2    1     -0.474000000000      0.527000000000      3.691000000000
3    1     -0.474000000000      4.511000000000      3.691000000000
4    1      0.573000000000      5.454000000000      3.691000000000
5    1      1.914000000000     -0.852000000000      3.691000000000
6    1      3.315000000000     -0.705000000000      3.691000000000
7    1      3.315000000000      5.743000000000      3.691000000000
8    1      4.536000000000      5.038000000000      3.691000000000
9    1      5.364000000000      1.141000000000      3.691000000000
10    1      5.658000000000      2.519000000000      3.691000000000
11    1     -1.122000000000      2.519000000000      4.920000000000
12    1     -0.828000000000      3.897000000000      4.920000000000
13    1      0.000000000000      0.000000000000      4.920000000000
14    1      1.221000000000     -0.705000000000      4.920000000000
15    1      1.221000000000      5.743000000000      4.920000000000
16    1      2.622000000000      5.890000000000      4.920000000000
17    1      3.962000000000     -0.416000000000      4.920000000000
18    1      5.010000000000      0.527000000000      4.920000000000
19    1      5.010000000000      4.511000000000      4.920000000000
20    1      5.583000000000      3.223000000000      4.920000000000
1    1     -1.047000000000      1.815000000000      6.151000000000
2    1     -0.474000000000      0.527000000000      6.151000000000
3    1     -0.474000000000      4.511000000000      6.151000000000
4    1      0.573000000000      5.454000000000      6.151000000000
5    1      1.914000000000     -0.852000000000      6.151000000000
6    1      3.315000000000     -0.705000000000      6.151000000000
7    1      3.315000000000      5.743000000000      6.151000000000
8    1      4.536000000000      5.038000000000      6.151000000000
9    1      5.364000000000      1.141000000000      6.151000000000
10    1      5.658000000000      2.519000000000      6.151000000000
11    1     -1.122000000000      2.519000000000      7.380000000000
12    1     -0.828000000000      3.897000000000      7.380000000000
13    1      0.000000000000      0.000000000000      7.380000000000
14    1      1.221000000000     -0.705000000000      7.380000000000
15    1      1.221000000000      5.743000000000      7.380000000000
16    1      2.622000000000      5.890000000000      7.380000000000
17    1      3.962000000000     -0.416000000000      7.380000000000
18    1      5.010000000000      0.527000000000      7.380000000000
19    1      5.010000000000      4.511000000000      7.380000000000
20    1      5.583000000000      3.223000000000      7.380000000000
1    1     -1.047000000000      1.815000000000      8.611000000000
2    1     -0.474000000000      0.527000000000      8.611000000000
3    1     -0.474000000000      4.511000000000      8.611000000000
4    1      0.573000000000      5.454000000000      8.611000000000
5    1      1.914000000000     -0.852000000000      8.611000000000
6    1      3.315000000000     -0.705000000000      8.611000000000
7    1      3.315000000000      5.743000000000      8.611000000000
8    1      4.536000000000      5.038000000000      8.611000000000
9    1      5.364000000000      1.141000000000      8.611000000000
10    1      5.658000000000      2.519000000000      8.611000000000
11    1     -1.122000000000      2.519000000000      9.840000000000
12    1     -0.828000000000      3.897000000000      9.840000000000
13    1      0.000000000000      0.000000000000      9.840000000000
14    1      1.221000000000     -0.705000000000      9.840000000000
15    1      1.221000000000      5.743000000000      9.840000000000
16    1      2.622000000000      5.890000000000      9.840000000000
17    1      3.962000000000     -0.416000000000      9.840000000000
18    1      5.010000000000      0.527000000000      9.840000000000
19    1      5.010000000000      4.511000000000      9.840000000000
20    1      5.583000000000      3.223000000000      9.840000000000
1    1     -1.047000000000      1.815000000000     -6.149000000000
2    1     -0.474000000000      0.527000000000     -6.149000000000
3    1     -0.474000000000      4.511000000000     -6.149000000000
4    1      0.573000000000      5.454000000000     -6.149000000000
5    1      1.914000000000     -0.852000000000     -6.149000000000
6    1      3.315000000000     -0.705000000000     -6.149000000000
7    1      3.315000000000      5.743000000000     -6.149000000000
8    1      4.536000000000      5.038000000000     -6.149000000000
9    1      5.364000000000      1.141000000000     -6.149000000000
10    1      5.658000000000      2.519000000000     -6.149000000000
11    1     -1.122000000000      2.519000000000     -4.920000000000
12    1     -0.828000000000      3.897000000000     -4.920000000000
13    1      0.000000000000      0.000000000000     -4.920000000000
14    1      1.221000000000     -0.705000000000     -4.920000000000
15    1      1.221000000000      5.743000000000     -4.920000000000
16    1      2.622000000000      5.890000000000     -4.920000000000
17    1      3.962000000000     -0.416000000000     -4.920000000000
18    1      5.010000000000      0.527000000000     -4.920000000000
19    1      5.010000000000      4.511000000000     -4.920000000000
20    1      5.583000000000      3.223000000000     -4.920000000000
1    1     -1.047000000000      1.815000000000     -8.609000000000
2    1     -0.474000000000      0.527000000000     -8.609000000000
3    1     -0.474000000000      4.511000000000     -8.609000000000
4    1      0.573000000000      5.454000000000     -8.609000000000
5    1      1.914000000000     -0.852000000000     -8.609000000000
6    1      3.315000000000     -0.705000000000     -8.609000000000
7    1      3.315000000000      5.743000000000     -8.609000000000
8    1      4.536000000000      5.038000000000     -8.609000000000
9    1      5.364000000000      1.141000000000     -8.609000000000
10    1      5.658000000000      2.519000000000     -8.609000000000
11    1     -1.122000000000      2.519000000000     -7.380000000000
12    1     -0.828000000000      3.897000000000     -7.380000000000
13    1      0.000000000000      0.000000000000     -7.380000000000
14    1      1.221000000000     -0.705000000000     -7.380000000000
15    1      1.221000000000      5.743000000000     -7.380000000000
16    1      2.622000000000      5.890000000000     -7.380000000000
17    1      3.962000000000     -0.416000000000     -7.380000000000
18    1      5.010000000000      0.527000000000     -7.380000000000
19    1      5.010000000000      4.511000000000     -7.380000000000
20    1      5.583000000000      3.223000000000     -7.380000000000
}
Transport = {
  Device = {
    AtomRange = {
1 80
    }
    FirstLayerAtoms = {
1  41
    }
    FirstLayerAtoms = {
 1 41
    }
  }
  Contact = {
    Id = "source"
    AtomRange = {
81 120
    }
    FermiLevel [eV] = -4.370889992000
    potential = 0.0
    ShiftAccuracy = 1.000000000000000E-005
    wideBand = No
  }
  Contact = {
    Id = "drain"
    AtomRange = {
121 160
    }
    FermiLevel [eV] = -4.370889992000
    potential = 0.0
    ShiftAccuracy = 1.000000000000000E-005
    wideBand = No
  }
  Task = uploadcontacts {}
}
Driver = {}
Hamiltonian = DFTB {
  SCC = No
  MaxAngularMomentum = {
    C = "p"
  }
  Filling = Fermi {
    Temperature [Kelvin] = 0
  }
  SlaterKosterFiles = {
    C-C = "./CC.sk"
  }
  Eigensolver = TransportOnly {}
  PolynomialRepulsive = {}
  OldRepulsiveSum = No
  OrbitalResolvedSCC = No
  OldSKInterpolation = No
  Charge = 0.000000000000000E+000
  Dispersion = {}
  Electrostatics = GammaFunctional {}
}
Analysis = {
  TunnelingAndDOS = {
    EnergyRange [eV] = {
-6.0  -5.5
    }
    EnergyStep [eV] = 0.02
    Region = {
      Atoms = 1:40
      Label = "first"
      ShellResolved = No
    }
    Region = {
      Atoms = 41:80
      Label = "second"
      ShellResolved = No
    }
    Verbosity = 51
    LocalCurrents = No
    WriteLDOS = Yes
    WriteTunn = Yes
    TerminalCurrents = EmitterCollector {
 "source" "drain"
    }
    Delta = 1.000000000000000E-005
  }
  ProjectStates = {}
}
Options = {
  WriteAutotestTag = Yes
  MullikenAnalysis = No
  CalculateForces = No
  WriteEigenvectors = No
  WriteDetailedXML = No
  WriteResultsTag = No
  WriteDetailedOut = Yes
  WriteBandOut = Yes
  AtomResolvedEnergies = No
  RandomSeed = 0
  WriteHS = No
  WriteRealHS = No
  MinimiseMemoryUsage = No
  ShowFoldedCoords = No
}
ParserOptions = {
  ParserVersion = 3
  WriteHSDInput = Yes
  WriteXMLInput = No
  StopAfterParsing = No
  IgnoreUnprocessedNodes = No
}
Parallel = {
  RowBlockSize = 32
  ColumnBlockSize = 32
  Groups = 1
}
