Geometry = GenFormat {
8  S
 Si
     1    1      -0.01498875     -0.01599422      0.02851326  
     2    1       1.41594312      1.39213115      1.31880813  
     3    1       2.72749090      2.72250414      0.01534618  
     4    1       4.03938300      4.08302728      1.33289315  
     5    1       2.70751873     -0.00952582      2.71447863  
     6    1       4.04477119      1.35450792      4.08163676  
     7    1       0.00973494      2.68624342      2.67828216  
     8    1       1.35142287      4.06838213      4.11131773  
   0.00000000000E+00   0.00000000000E+00   0.00000000000E+00
   0.54270920000E+01   0.00000000000E+00   0.00000000000E+00
   0.00000000000E+00   0.54270920000E+01   0.00000000000E+00
   0.00000000000E+00   0.00000000000E+00   0.54270920000E+01
}

Driver = VelocityVerlet {
  Steps = 2
  TimeStep [Femtosecond] = 1.0
  Thermostat = NoseHoover {
    Temperature [Kelvin] = 273.15
    CouplingStrength [cm^-1] = 600
    Restart = { # specify internal state for the thermostat
      x = { 0.9996930771E+00    0.9964985276E+00    0.9965061982E+00}
      v = {-0.5716463853E-05   -0.3655208165E-04   -0.3640230213E-04}
      g = {-0.7062330098E-07   -0.1886240308E-06   -0.1879742133E-06}
    }
  }
  Velocities [AA/ps] = { # Initial velocities
   -1.21470638     -0.90554557      2.57492454
     5.11077208      2.63739694     -3.28624412
     1.46824487      1.09363330      0.86635305
    -2.57181663      0.96285318     -1.60727177
    -0.82685799     -0.82627047      0.23508769
    -1.99463869     -0.31838645      0.89824961
     0.78449756     -2.25206862     -3.08942237
    -0.75549481     -0.39161231      3.40832338
  }
  OutputPrefix = "geo_end"
}

Hamiltonian = DFTB {
  MaxAngularMomentum = {
    Si = "p"
  }
  Filling = Fermi {
    Temperature [Kelvin] = 273.15
  }
  SlaterKosterFiles = {
    Si-Si = "./Si-Si.skf"
  }
  KPointsAndWeights = SupercellFolding { # not converged
   2 0 0
   0 2 0
   0 0 2
   0.5 0.5 0.5
  }
}

Options = {
  WriteAutotestTag = Yes
  RandomSeed = 12345
}

ParserOptions = {
  ParserVersion = 4
}

Parallel {
  # Allow OMP threads explicitely to test for hybrid parallelisation with
  # MPI-binary. (Check the manual before using this in production runs!)
  UseOmpThreads = Yes
}

