Geometry = GenFormat {
2  S
 Si
     1    1    0.000000 0.000000 0.000000
     2    1    1.356773 1.356773 1.356773
   0.000000 0.000000 0.000000
   0.000000 2.713546 2.713546
   2.713546 0.000000 2.713546
   2.713546 2.713546 0.000000
}
Hamiltonian = DFTB {
  MaxAngularMomentum = {
    Si = "p"
  }
  Filling = Fermi {
    Temperature [Kelvin] = 1.0
  }
  SlaterKosterFiles = {
    Si-Si = "./Si-Si.skf"
  }
  KPointsAndWeights = SupercellFolding {
   4 0 0
   0 4 0
   0 0 4
   0.5 0.5 0.5
  }
  SpinOrbit = {
    Si [eV] = {0.0 0.029}
    Dual = No
  }
}
Options = {
  CalculateForces = Yes
  MullikenAnalysis = Yes
  WriteAutotestTag = Yes
  AtomResolvedEnergies = Yes
}

ParserOptions = {
  ParserVersion = 4
}

Parallel {
  # Allow OMP threads explicitely to test for hybrid parallelisation with
  # MPI-binary. (Check the manual before using this in production runs!)
  UseOmpThreads = Yes
}

