Geometry = GenFormat {
2  F
 Si
 1    1    0.00 0.00 0.00
 2    1    0.23 0.27 0.20
 0.0  0.0  0.0
 3.0  3.0  0.0
 0.0  3.0  3.0
 3.0  0.0  3.0
}

Driver = GeometryOptimization {
 Optimizer = Rational {}
 MovedAtoms = {1 2}
 LatticeOpt = Yes
 Convergence = { GradElem = 1.0E-6 }
 MaxSteps = 200
}

Hamiltonian = DFTB {
  MaxAngularMomentum = {
    Si = "p"
  }
  Solver = QR {}
  Filling = Fermi {}
  SlaterKosterFiles = {
    Si-Si = "slakos/origin/pbc-0-3/Si-Si.skf"
  }
  KPointsAndWeights = SupercellFolding {
   6 0 0
   0 6 0
   0 0 6
   0.5 0.5 0.5
  }
}

Options = { WriteAutotestTag = Yes }

ParserOptions = {
  ParserVersion = 12
}

Parallel { UseOmpThreads = Yes }
