Geometry = GenFormat {
 3  C
  O H
     1    1    0.00000000000E+00  -0.10000000000E+01   0.00000000000E+00
     2    2    0.00000000000E+00   0.00000000000E+00   0.78306400000E+00
     3    2    0.00000000000E+00   0.00000000000E+00  -0.78306400000E+00
}

Driver = {}

Hamiltonian = DFTB {
  SCC = Yes
  SCCTolerance = 1.0E-10
  MaxAngularMomentum = {
    O = "p"
    H = "s"
  }
  Filling = Fermi {
    Temperature [Kelvin] = 1.0
  }
  SlaterKosterFiles = Type2FileNames {
    Separator = "-"
    Suffix  = ".skf"
  }
}

Options = {
  WriteAutotestTag = No
}

ParserOptions = {
  ParserVersion = 12
}
