Geometry = GenFormat {
8 C
O N H
     1   1   -2.7609048174737505E+00   -4.0901218799216377E+00   -4.4998518134203245E+00
     2   2   -3.4346182643423782E+00   -6.2955346989548087E+00   -5.8911166916841848E+00
     3   3   -3.1726177107191380E+00   -5.4289714456250113E+00   -5.3440284416471426E+00
     4   3   -2.6010132069682705E+00   -6.7075879094921191E+00   -6.3072812574585972E+00
     5   3   -2.7210959410415669E+00   -3.1917236262848250E+00   -4.8336899933945956E+00
     6   3   -2.5130951276247284E+00   -4.0499366847884861E+00   -3.5740402385477470E+00
     7   3   -4.0918491531088028E+00   -6.0539910726775092E+00   -6.6310862442132787E+00
     8   3   -3.8707678271340402E+00   -6.9780737669131661E+00   -5.2732456945649009E+00
}

Hamiltonian = DFTB {
  Charge = +1
  SCC = Yes
  SCCTolerance = 1.0E-9
  MaxSCCIterations = 300
  Filling = Fermi {
    Temperature = 0.0
  }
  Mixer = Broyden {}
  MaxAngularMomentum = {
    H = "s"
    N = "p"
    O = "p"
  }

  ThirdOrderFull = Yes
  HubbardDerivs = {
    H = -0.1857
    N = -0.1535
    O = -0.1575
  }

  Mdftb = OneCenterApproximation {
    AtomDIntegralScalings = {
      H = 0.0
      N = 0.6
      O = 0.2
    }
    AtomQIntegralScalings = {
      H = 0.0
      N = 3.4
      O = 3.0
    }
    OneCenterAtomIntegrals = {
      H:S|XX|S   = 0.55976
      N:S|X|Px   = 0.68857
      N:S|XX|S   = 0.57638
      N:Px|XX|Px = 1.05308
      N:Py|XX|Py = 0.35103
      O:S|X|Px   = 0.60894
      O:S|XX|S   = 0.45215
      O:Px|XX|Px = 0.83893
      O:Py|XX|Py = 0.27964
    }
  }

  SlaterKosterFiles = Type2Filenames {
    Prefix = {slakos/origin/m3ob-test/}
    Suffix = ".skf"
    Separator = "-"
  }
}

ParserOptions = {
  ParserVersion = 14
  IgnoreUnprocessedNodes = No
}

Analysis = {
  PrintForces = Yes
}

Options = {
  WriteAutotestTag = Yes
  WriteResultsTag = Yes
}

Parallel{
  Blacs{BlockSize=2}
  # Allow OMP threads explicitely to test for hybrid parallelisation with
  # MPI-binary. (Check the manual before using this in production runs!)
  UseOmpThreads = Yes
}
