Geometry = GenFormat {
   30  C
   C  H  N  O
    1 1    0.3973710047E+01   -0.1540717401E+01    0.6465481762E-01
    2 1    0.2840323860E+01   -0.7130402111E+00    0.6461006030E-01
    3 1    0.2935292845E+01    0.7115834289E+00    0.6463651089E-01
    4 1    0.4200990185E+01    0.1312871046E+01    0.6472067034E-01
    5 1    0.5330830890E+01    0.4904126239E+00    0.6477068332E-01
    6 1    0.5220205595E+01   -0.9126532689E+00    0.6473581647E-01
    7 2    0.3882530473E+01   -0.2634474348E+01    0.6463220751E-01
    8 2    0.4300590319E+01    0.2405825178E+01    0.6474995790E-01
    9 2    0.6330793005E+01    0.9445295344E+00    0.6484042142E-01
   10 2    0.6132228274E+01   -0.1523773763E+01    0.6477659726E-01
   11 3    0.1506021395E+01   -0.1066653068E+01    0.6454805333E-01
   12 2    0.1121007261E+01   -0.2025626411E+01    0.6453375950E-01
   13 1    0.1561506980E+01    0.1236380480E+01    0.6458518590E-01
   14 4    0.1149871751E+01    0.2422591989E+01    0.6458677802E-01
   15 3   -0.1506021325E+01    0.1066653120E+01    0.6454805334E-01
   16 1   -0.1561506949E+01   -0.1236380425E+01    0.6458518590E-01
   17 1   -0.2840323789E+01    0.7130402901E+00    0.6461006030E-01
   18 2   -0.1121007150E+01    0.2025626440E+01    0.6453375950E-01
   19 1   -0.2935292800E+01   -0.7115833441E+00    0.6463651088E-01
   20 4   -0.1148871731E+01   -0.2422591935E+01    0.6458677801E-01
   21 1   -0.3973709946E+01    0.1540717503E+01    0.6465481761E-01
   22 1   -0.4200990147E+01   -0.1312870926E+01    0.6472067034E-01
   23 1   -0.5220205499E+01    0.9126533984E+00    0.6473581646E-01
   24 2   -0.3882530343E+01    0.2634474435E+01    0.6463220750E-01
   25 1   -0.5330830825E+01   -0.4904124822E+00    0.6477068331E-01
   26 2   -0.4300590314E+01   -0.2405825041E+01    0.6474995790E-01
   27 2   -0.6132228155E+01    0.1523773905E+01    0.6477659724E-01
   28 2   -0.6330792937E+01   -0.9445293706E+00    0.6484042142E-01
   29 1   -0.7120509377E+00   -0.4717169551E-01    0.6453550042E-01
   30 1    0.7120509803E+00    0.4717173312E-01    0.6453550043E-01
}

Driver = ConjugateGradient {
  AppendGeometries = Yes
  OutputPrefix = 'deltaDFTBindigo'
  MaxForceComponent = 1.0E-6
}

Hamiltonian = DFTB{

  NonAufbau = {
    GroundGuess=Yes
  }

  SCC = Yes
  SCCTolerance = 1.0E-8

  SpinConstants = {
    H = {
      -0.072
    }
    C = {
      -0.023
    }
    N = {
      -0.026
    }
    O = {
      -0.028
    }
  }
  MaxAngularMomentum = {
    H = "s"
    C = "p"
    N = "p"
    O = "p"
  }

  SlaterKosterFiles = {
    C-N = "C-N.skf"
    C-H = "C-H.skf"
    C-C = "C-C.skf"
    C-O = "C-O.skf"
    H-C = "H-C.skf"
    H-H = "H-H.skf"
    H-N = "H-N.skf"
    H-O = "H-O.skf"
    O-H = "O-H.skf"
    O-O = "O-O.skf"
    O-C = "O-C.skf"
    O-N = "O-N.skf"
    N-N = "N-N.skf"
    N-O = "N-O.skf"
    N-H = "N-H.skf"
    N-C = "N-C.skf"
  }
}

Options {
  WriteAutotestTag = Yes
}

ParserOptions {
  ParserVersion = 7
}

Parallel {
  # Allow OMP threads explicitely to test for hybrid parallelisation with
  # MPI-binary. (Check the manual before using this in production runs!)
  UseOmpThreads = Yes
}
