Geometry = GenFormat {
 5  C
 C H
    1  1    0.0000000000    0.0000000000    0.0000000000
    2  2    0.6366242192    0.6366242192    0.6366242192
    3  2   -0.6366242192   -0.6366242192    0.6366242192
    4  2   -0.6366242192    0.6366242192   -0.6366242192
    5  2    0.6366242192   -0.6366242192   -0.6366242192
}

Hamiltonian = DFTB {
#  AtomSitePotential {
#      Gross {
#          Atoms = 2
#          Vext = 5E-6
#      }
#  }
  SCC = Yes
  SCCTolerance = 1.0E-10
  MaxAngularMomentum = {
    C = "p"
    H = "s"
  }
  Charge = 0.5
  Filling = Fermi {
    Temperature [Kelvin] = 500.0
  }
  SpinPolarisation = Colinear {
    UnpairedElectrons = 0.5
    InitialSpins = {
      AtomSpin = {
        Atoms = { C }
        SpinPerAtom = 0.5
      }
      AtomSpin = {
        Atoms = { H }
        SpinPerAtom = 0.0
      }
    }
  }
  SpinConstants = {
    C = {-0.023} # -0.031 -0.025 -0.025 -0.023
    H = {-0.072}
  }
  SlaterKosterFiles = Type2FileNames {
    Separator = "-"
    Suffix = ".skf"
  }
}

Analysis = {
  ResponseKernel = {}
}

Options = {
  WriteAutotestTag = Yes
}

ParserOptions = {
  ParserVersion = 9
}

Parallel {
  # Allow OMP threads explicitely to test for hybrid parallelisation with
  # MPI-binary. (Check the manual before using this in production runs!)
  UseOmpThreads = Yes
}
