Geometry = GenFormat {
   <<< geo_translated.gen
}

Hamiltonian = DFTB {

  SCC = Yes
  MaxSccIterations = 100
  SccTolerance = 1e-09

  Filling = Fermi {
    Temperature [K] = 0.0
  }

  MaxAngularMomentum = {
    C = "p"
    N = "p"
  }

  SlaterKosterFiles = Type2FileNames {
    Prefix = "slakos/origin/ob2-1-1/shift/"
    Separator = "-"
    Suffix = ".skf"
  }

  Hybrid = LC {
    CoulombMatrix = Truncated {
      CoulombCutoff = 0.377945E+02
      GSummationCutoff = 0.755890E+02
    }
    Screening = MatrixBased {}
  }

  KPointsAndWeights = SupercellFolding {
     3   0   0
     0   3   0
     0   0   10
    0.0 0.0 0.0
  }

}

Options {
  WriteAutotestTag = Yes
}

ParserOptions {
  ParserVersion = 14
}

Parallel {
  Groups = 1
  # Allow OMP threads explicitely to test for hybrid parallelisation with
  # MPI-binary. (Check the manual before using this in production runs!)
  UseOmpThreads = Yes
}
