Geometry = GenFormat {
    6  C
  C  H
    1 1    0.0000000000E+00    0.0000000000E+00   -0.6642704060E+00
    2 1    0.0000000000E+00    0.0000000000E+00    0.6642704060E+00
    3 2    0.0000000000E+00    0.9326206601E+00    0.1236308685E+01
    4 2    0.0000000000E+00   -0.9326206601E+00    0.1236308685E+01
    5 2    0.0000000000E+00    0.9326206601E+00   -0.1236308685E+01
    6 2    0.0000000000E+00   -0.9326206601E+00   -0.1236308685E+01
}

Hamiltonian = DFTB {
  SCC = No
  MaxAngularMomentum = {
    C = "p"
    H = "s"
  }
  Charge = 0.0
  Filling = Fermi {
    Temperature [Kelvin] = 100.0
  }
  SlaterKosterFiles = Type2FileNames {
    Separator = "-"
    Suffix = ".skf"
  }
}

Options = {
  WriteAutotestTag = Yes
  WriteDetailedXML = Yes
}

Analysis = {
  Localise = {
    PipekMezey = {} 
  }
}

ParserOptions = {
  ParserVersion = 4
}


Parallel {
  # Allow OMP threads explicitely to test for hybrid parallelisation with
  # MPI-binary. (Check the manual before using this in production runs!)
  UseOmpThreads = Yes
}

