Geometry = GenFormat {
24 S
C H
1   1   5.0000000000E+00   5.0000000000E+00   2.8417200000E+00
2   1   5.0000000000E+00   6.2305010000E+00   3.5521500000E+00
3   1   5.0000000000E+00   5.0000000000E+00   1.4208600000E+00
4   1   5.0000000000E+00   7.4610020000E+00   2.8417200000E+00
5   1   5.0000000000E+00   8.6915030000E+00   3.5521500000E+00
6   1   5.0000000000E+00   6.2305010000E+00   7.1043000000E-01
7   1   5.0000000000E+00   7.4610020000E+00   1.4208600000E+00
8   1   5.0000000000E+00   9.9220030000E+00   2.8417200000E+00
9   1   5.0000000000E+00   1.1152500000E+01   3.5521500000E+00
10   1   5.0000000000E+00   8.6915030000E+00   7.1043000000E-01
11   1   5.0000000000E+00   9.9220030000E+00   1.4208600000E+00
12   1   5.0000000000E+00   1.2383010000E+01   2.8417200000E+00
13   1   5.0000000000E+00   1.3613510000E+01   3.5521500000E+00
14   1   5.0000000000E+00   1.1152500000E+01   7.1043000000E-01
15   1   5.0000000000E+00   1.2383010000E+01   1.4208600000E+00
16   1   5.0000000000E+00   1.4844010000E+01   2.8417200000E+00
17   1   5.0000000000E+00   1.6074510000E+01   3.5521500000E+00
18   1   5.0000000000E+00   1.3613510000E+01   7.1043000000E-01
19   1   5.0000000000E+00   1.4844010000E+01   1.4208600000E+00
20   1   5.0000000000E+00   1.6074510000E+01   7.1043000000E-01
21   2   5.0000000000E+00   4.0560320000E+00   3.3867200000E+00
22   2   5.0000000000E+00   4.0560320000E+00   8.7586000000E-01
23   2   5.0000000000E+00   1.7018480000E+01   3.0071500000E+00
24   2   5.0000000000E+00   1.7018480000E+01   1.2554300000E+00
0.0   0.0   0.0
100.0   0.0   0.0
0.0   100.0   0.0
0.0   0.0   4.26258
}
Driver = {}
Hamiltonian = DFTB {
  SCC = Yes
  SCCTolerance = 1.0e-10
  MaxAngularMomentum = {
    C = "p"
    H = "s"
  }
  SlaterKosterFiles = Type2FileNames {
    Separator = "-"
    Suffix = ".skf"
    Prefix = ""
    LowerCaseTypeName = No
  }
  KPointsAndWeights = {
0.0 0.0 0.0 1.0
  }
  Charge = 0.0
  Filling = Fermi {
    Temperature [k] = 273.15
    IndependentKFilling = No
  }
  PolynomialRepulsive = {}
  OrbitalResolvedSCC = No
  OldSKInterpolation = No
  ReadInitialCharges = No
  InitialCharges = {}
  Mixer = Broyden {
    MixingParameter = 0.200000000000000
    InverseJacobiWeight = 1.000000000000000E-002
    MinimalWeight = 1.00000000000000
    MaximalWeight = 100000.000000000
    WeightFactor = 1.000000000000000E-002
  }
  EwaldParameter = 0.000000000000000E+000
  EwaldTolerance = 1.000000000000000E-009
  HCorrection = None {}
  SpinPolarisation = {}
  ElectricField = {}
  Eigensolver = RelativelyRobust {}
  MaxSCCIterations = 100
  OnSiteCorrection = {}
  Dispersion = {}
  ThirdOrder = No
  ThirdOrderFull = No
  Differentiation = FiniteDiff {
    Delta = 1.220703125000000E-004
  }
  ForceEvaluation = "Traditional"
}
Options = {
  WriteAutotestTag = Yes
  WriteDetailedOut = Yes
  WriteDetailedXML = No
  WriteResultsTag = No
  RestartFrequency = 20
  RandomSeed = 0
  WriteHS = No
  WriteRealHS = No
  MinimiseMemoryUsage = No
  ShowFoldedCoords = No
  TimingVerbosity = 1
  WriteChargesAsText = No
}
ParserOptions = {
  ParserVersion = 6
  WriteHSDInput = Yes
  WriteXMLInput = No
  StopAfterParsing = No
  IgnoreUnprocessedNodes = No
}
Analysis = {
  ElectronDynamics = {
    Steps = 20000
    TimeStep [au] = 0.2
    FieldStrength [v/a] = 0.0001
    Perturbation = Kick {
      PolarizationDirection = 2
      SpinType = "Singlet"
    }
    Populations = No
    WriteFrequency = 50
    Restart = No
    WriteRestart = Yes
    RestartFrequency = 2000
    Forces = No
    WritePairWiseEnergy = No
    OnsiteGradients = No
    PumpProbe = No
    EulerEvery = -1
    EnvelopeShape = Constant {}
    IonDynamics = No
  }
  ProjectStates = {}
  MullikenAnalysis = Yes
  AtomResolvedEnergies = No
  WriteEigenvectors = No
  WriteBandOut = Yes
  CalculateForces = No
}
Parallel = {
  UseOmpThreads = Yes
  Blacs = BlockSize {
16
  }
  Groups = 1
}
ExcitedState = {}
