Geometry = GenFormat {
 2 S
 Ga As
 1 1 0.000000 0.000000 0.000000
 2 2 1.356773 1.356773 1.356773
 0.000000 0.000000 0.000000
 2.713546 2.713546 0.
 0. 2.713546 2.713546
 2.713546 0. 2.713546
}
