Geometry = xyzFormat {
 24
 caffeine C8H10N4O2
 C 1.07317 0.04885 -0.07573
 N 2.51365 0.01256 -0.07580
 C 3.35199 1.09592 -0.07533
 N 4.61898 0.73028 -0.07549
 C 4.57907 -0.63144 -0.07531
 C 3.30131 -1.10256 -0.07524
 C 2.98068 -2.48687 -0.07377
 O 1.82530 -2.90038 -0.07577
 N 4.11440 -3.30433 -0.06936
 C 5.45174 -2.85618 -0.07235
 O 6.38934 -3.65965 -0.07232
 N 5.66240 -1.47682 -0.07487
 C 7.00947 -0.93648 -0.07524
 C 3.92063 -4.74093 -0.06158
 H 0.73398 1.08786 -0.07503
 H 0.71239 -0.45698 0.82335
 H 0.71240 -0.45580 -0.97549
 H 2.99301 2.11762 -0.07478
 H 7.76531 -1.72634 -0.07591
 H 7.14864 -0.32182 0.81969
 H 7.14802 -0.32076 -0.96953
 H 2.86501 -5.02316 -0.05833
 H 4.40233 -5.15920 0.82837
 H 4.40017 -5.16929 -0.94780
}
