Geometry = GenFormat {
96 C
O H
1   1   8.5762296000E-01  -2.1440915000E-01  -5.6806165000E-01
2   2   8.1292430000E-01  -1.1942700900E+00  -5.5892515000E-01
3   2   2.5157600000E-02   1.7442257000E-01  -3.4257987000E-01
4   1  -5.3492373000E-01   2.1004010700E+00  -7.6213856000E-01
5   2  -9.3089260000E-02   1.9574027600E+00  -1.6718409700E+00
6   2   1.3539645000E-01   2.6561997400E+00  -2.7462606000E-01
7   1   4.0969851000E-01  -1.4283136000E-01   2.3438406200E+00
8   2   1.0882750200E+00   2.5342336000E-01   2.8634787800E+00
9   2   9.0189018000E-01  -3.5029575000E-01   1.5570201000E+00
10   1   4.4827979000E-01  -2.7782012200E+00  -3.0451705000E-01
11   2   9.2973011000E-01  -3.3268800300E+00   3.6749126000E-01
12   2  -4.1307912000E-01  -3.1605358200E+00  -5.5689168000E-01
13   1  -1.8597385400E+00  -8.8951714000E-01  -2.0385713000E+00
14   2  -1.5738787600E+00   2.0092930000E-02  -2.2605900800E+00
15   2  -1.4495790800E+00  -1.5262260800E+00  -2.6061064300E+00
16   1   2.9953919800E+00   1.2032684900E+00   4.2854562000E-01
17   2   2.3226083900E+00   6.5200075000E-01  -1.1097429000E-01
18   2   3.5540773800E+00   5.8887304000E-01   8.8531209000E-01
19   1   1.4044280800E+00   3.2668533500E+00   6.7407465000E-01
20   2   2.1529606000E+00   3.4088745400E+00   2.8038040000E-02
21   2   1.6443235200E+00   2.4391957500E+00   1.2092643700E+00
22   1  -1.6816518900E+00  -1.3788970400E+00   3.4268344700E+00
23   2  -9.3185906000E-01  -9.3332565000E-01   2.9104370400E+00
24   2  -1.4296854300E+00  -2.2616489600E+00   3.6755056300E+00
25   1  -3.2260402000E+00   2.3559442700E+00   7.5164493000E-01
26   2  -3.8163506500E+00   1.8480859400E+00   2.6889268000E-01
27   2  -2.3614105200E+00   2.2615078600E+00   3.9616346000E-01
28   1  -3.4647028300E+00  -2.2763528100E+00  -4.1893101000E-01
29   2  -2.9345388500E+00  -1.6156071400E+00  -9.3928151000E-01
30   2  -3.1239594400E+00  -3.2030536300E+00  -6.0154535000E-01
31   1  -7.9269990000E-02  -2.8851176400E+00  -3.0654887300E+00
32   2   3.7074144000E-01  -3.4236175000E+00  -2.4334249500E+00
33   2   4.3529660000E-01  -2.5510997900E+00  -3.8456671900E+00
34   1  -1.6603600300E+00   1.8790165900E+00  -3.3886064800E+00
35   2  -2.5976491600E+00   2.1060915800E+00  -3.0989361100E+00
36   2  -1.7649231500E+00   1.1516993200E+00  -4.0570119700E+00
37   1  -5.1574084000E-01   2.9376976400E+00   3.4708575400E+00
38   2  -6.5161384000E-01   3.6204891000E+00   2.8709800700E+00
39   2  -9.6769925000E-01   2.0655206400E+00   3.4356891200E+00
40   1   2.0859117700E+00   1.1526276700E+00   4.0704458300E+00
41   2   1.5427471800E+00   1.8912383800E+00   3.7984983600E+00
42   2   3.0581113900E+00   1.5508679100E+00   3.8915245900E+00
43   1   1.3140262500E+00   2.3649246300E+00  -4.0010867700E+00
44   2   1.8120401100E+00   3.1449995400E+00  -3.5843398300E+00
45   2   3.5993053000E-01   2.3877763200E+00  -3.9045888000E+00
46   1   4.0318951300E+00   2.5811602600E+00  -1.4426592700E+00
47   2   3.8775856500E+00   2.4899016300E+00  -4.4077585000E-01
48   2   4.7741540700E+00   2.0461719700E+00  -1.8343792900E+00
49   1  -4.4619129000E+00  -1.4848650700E+00   1.9854670600E+00
50   2  -3.6869435400E+00  -1.5927004400E+00   2.6124526400E+00
51   2  -4.1334512500E+00  -1.5790617600E+00   1.0812632500E+00
52   1  -1.9304368300E+00  -4.6952467900E+00  -6.7317743000E-01
53   2  -1.7370434700E+00  -5.3045443600E+00   9.5922740000E-02
54   2  -2.7517054900E+00  -5.0397939800E+00  -1.0907651400E+00
55   1   4.7497207000E+00  -1.7802900000E-03   1.9956111400E+00
56   2   5.1423574400E+00  -7.1445309000E-01   1.5476510800E+00
57   2   5.0242545200E+00  -1.3631724000E-01   2.9512788200E+00
58   1   1.9240422400E+00  -4.7589323000E+00   8.6886543000E-01
59   2   1.5329025900E+00  -5.2545724600E+00   1.6355665000E-01
60   2   2.8784178200E+00  -4.8081486300E+00   7.0064281000E-01
61   1  -1.1675580800E+00   4.6967888200E+00  -2.0294645900E+00
62   2  -1.7173718400E+00   5.2370833900E+00  -2.6662131000E+00
63   2  -1.5240794100E+00   3.8094433100E+00  -1.8886592300E+00
64   1   2.8009768900E+00  -1.7412533000E-01  -4.7347572500E+00
65   2   2.3141613800E+00   6.9935847000E-01  -4.6315120600E+00
66   2   2.2320238600E+00  -9.1090488000E-01  -5.0266405900E+00
67   1  -3.9443574500E+00   3.5932098900E+00  -1.8920031000E+00
68   2  -4.0782822500E+00   4.5227581600E+00  -2.2038867200E+00
69   2  -3.7952736600E+00   3.7459834600E+00  -9.5020071000E-01
70   1  -4.1676130300E+00   2.2490191100E+00   3.4372899000E+00
71   2  -4.1689778900E+00   3.0553765100E+00   3.9565180100E+00
72   2  -3.8614370300E+00   2.4574697500E+00   2.5158781800E+00
73   1  -1.8194047200E+00   1.0796340000E-01  -5.5749060000E+00
74   2  -2.4636536300E+00  -6.6082338000E-01  -5.4094989300E+00
75   2  -9.9030592000E-01  -2.8862272000E-01  -5.9286616200E+00
76   1   2.7360049100E+00   4.4233376100E+00  -2.8128876600E+00
77   2   3.3608252200E+00   3.7560552000E+00  -2.3461825600E+00
78   2   2.3854014000E+00   4.9935190700E+00  -2.0601543900E+00
79   1   4.8556826000E-01   5.4582865500E+00   2.2988982300E+00
80   2  -9.3200800000E-02   5.8636525700E+00   1.6843729500E+00
81   2   8.3420858000E-01   4.6706282700E+00   1.8793957600E+00
82   1  -9.9955656000E-01  -5.4395951900E+00   2.1848520600E+00
83   2  -1.4971097200E+00  -5.2371867100E+00   3.0068883700E+00
84   2  -1.2782528000E-01  -5.1434577200E+00   2.2744805100E+00
85   1   1.3922438800E+00  -2.5000510900E+00  -5.2268880600E+00
86   2   9.4655483000E-01  -2.6574152600E+00  -6.1215625200E+00
87   2   2.2750905200E+00  -2.8538057200E+00  -5.4682221700E+00
88   1  -3.1608475400E+00   2.6282482000E-01   5.0528975700E+00
89   2  -2.7285020200E+00  -4.3626428000E-01   4.4919047300E+00
90   2  -3.4598312600E+00   1.0676462700E+00   4.5368857700E+00
91   1   3.9152122400E+00   4.5917211000E+00   4.0400403000E-01
92   2   4.1821650200E+00   4.7669269600E+00   1.3219584800E+00
93   2   4.6414500900E+00   4.9021404300E+00  -2.3076669000E-01
94   1   1.3537278200E+00   5.9478137900E+00  -1.1248780100E+00
95   2   5.9428228000E-01   5.4803492000E+00  -1.5788934900E+00
96   2   1.2164746500E+00   6.3930823100E+00  -2.1321758000E-01
}

Hamiltonian = DFTB {
  Charge = 0
  SCC = Yes
  SCCTolerance = 1.0E-9
  MaxSCCIterations = 300
  Filling = Fermi {
    Temperature = 0.0
  }
  Mixer = Broyden {}
  MaxAngularMomentum = {
    H = "s"
    O = "p"
  }

  ThirdOrderFull = Yes
  HubbardDerivs = {
    H = -0.1857
    O = -0.1575
  }

  Mdftb = OneCenterApproximation {
    AtomDIntegralScalings = {
      H = 0.0
      O = 0.2
    }
    AtomQIntegralScalings = {
      H = 0.0
      O = 3.0
    }
    OneCenterAtomIntegrals = {
      H:S|XX|S   = 0.55976
      O:S|X|Px   = 0.60894
      O:S|XX|S   = 0.45215
      O:Px|XX|Px = 0.83893
      O:Py|XX|Py = 0.27964
    }
  }

  SlaterKosterFiles = Type2Filenames {
    Prefix = {slakos/origin/m3ob-test/}
    Suffix = ".skf"
    Separator = "-"
  }
}

ParserOptions = {
  ParserVersion = 14
  IgnoreUnprocessedNodes = No
}

Analysis = {
  PrintForces = Yes
}

Options = {
  WriteAutotestTag = Yes
  WriteResultsTag = Yes
}
