# xtb: 6.2.1 (e76d108)
    1.00000000000000
    6.00000000000000    0.00000000000000    0.00000000000000
    0.00000000000000    6.00000000000000    0.00000000000000
    0.00000000000000    0.00000000000000    6.00000000000000
 Ga As Ga As Ga As Ga As
 1 1 1 1 1 1 1 1
Selective
Direct
    0.00000000000000    0.00000000000000    0.00000000000000
    0.25000000000000    0.25000000000000    0.25000000000000
    0.50000000000000    0.50000000000000    0.00000000000000
    0.75000000000000    0.75000000000000    0.25000000000000
    0.50000000000000    0.00000000000000    0.50000000000000
    0.75000000000000    0.25000000000000    0.75000000000000
    0.00000000000000    0.50000000000000    0.50000000000000
    0.25000000000000    0.75000000000000    0.75000000000000
