Geometry = GenFormat {
 3  C
  O H
     1    1    0.00000000000  -1.00000000000   0.00000000000
     2    2    0.00000000000   0.00000000000   0.78306400000
     3    2    0.00000000000   0.00000000000  -0.78306400000
}

Hamiltonian = xTB {
  Method = "GFN1-xTB"
  SCCTolerance = 1.000000000000000E-010
  MaxSCCIterations = 1000
  Mixer = Broyden {}
  Filling = Fermi {
    Temperature [Kelvin] = 1.000000000000000E-008
  }
  ElectricField = {
    External = {
      Direction = 0.0 1.0 0.0
      Strength [v/m] = -4.50536095E10
    }
  }
}

Options { WriteAutotestTag = Yes }
Analysis { CalculateForces = Yes }
ParserOptions { ParserVersion = 9 }
Parallel { UseOmpThreads = Yes }
