Geometry = GenFormat {
  14 C
  H N C
       1   1  -6.0917360000E-02   1.1024805700E+00   3.0183608000E-01
       2   1  -1.6231224500E+00   5.4650330000E-01   7.5632418000E-01
       3   2  -6.5614534000E-01   6.9442500000E-01   9.6462102000E-01
       4   3  -1.3894923000E-01   5.1603726000E-01   2.1563050300E+00
       5   1  -1.7729941500E+00  -7.5317974000E-01   2.7679495700E+00
       6   1   9.0755308000E-01   7.5192214000E-01   2.4516103700E+00
       7   3  -7.5883049000E-01  -4.0000958000E-01   3.1270706100E+00
       8   3  -3.8709440000E-02  -5.9253262000E-01   4.3793143500E+00
       9   1  -1.2218329900E+00   9.8592753000E-01   5.2997701200E+00
      10   1   7.5245860000E-01  -1.3163698700E+00   4.5420195500E+00
      11   3  -3.7312159000E-01   2.7864808000E-01   5.3886438000E+00
      12   3   1.8171988000E-01   2.5656271000E-01   6.6497070700E+00
      13   1   1.0836709500E+00  -1.8496709000E-01   6.8052890500E+00
      14   1  -4.4638409000E-01   6.9751780000E-01   7.4822584200E+00
}

Hamiltonian = DFTB { 
  SCC = Yes
  SCCTolerance = 1e-6
  MaxSCCIterations = 1000
  Charge = 1.0
  SpinConstants = {
    ShellResolvedSpin = Yes
    H = { -0.072 }
    C = { -0.031 -0.025 -0.025 -0.023 }
    N = { -0.033 -0.027 -0.027 -0.026 }
  }
  MaxAngularMomentum = {
    H = "s"
    C = "p"
    N = "p"
  }
  SlaterKosterFiles = {
    N-N = "N-N.skf"
    N-C = "N-C.skf"
    N-H = "N-H.skf"
    C-N = "C-N.skf"
    C-C = "C-C.skf"
    C-H = "C-H.skf"
    H-N = "H-N.skf"
    H-C = "H-C.skf"
    H-H = "H-H.skf"
  }
}

Analysis {
  CalculateForces = Yes
}

Reks = SSR22 {
  Energy = {
    Functional = { "PPS" "OSS" }
    StateInteractions = Yes
  }
  TargetState = 2
  FonMaxIter = 30
  shift = 0.3
  TransitionDipole = Yes
  Gradient = ConjugateGradient {
    CGmaxIter = 100
    Tolerance = 1.0E-8
    Preconditioner = Yes
    SaveMemory = Yes
  }
  RelaxedDensity = Yes
  NonAdiabaticCoupling = Yes
  VerbosityLevel = 1
}

Options {
  WriteAutotestTag = Yes
}

ParserOptions {
  ParserVersion = 8
}
