Geometry = xyzFormat {
    6
Methanol
    C      0.29158162      0.29158162      0.24052901      3.94523911
    H      1.62136405      1.62136405      0.80170633      0.69494414
    H     -0.40636814     -0.40636814      0.72908423      0.94919719
    H     -0.29075356      0.98066608     -0.40835775      0.97628093
    H      0.98066608     -0.29075356     -0.40835775      0.97628093
    O      1.00350993      1.00350993      1.24539592      6.45805770
}

Hamiltonian = DFTB {
    SCC = Yes
    SCCTolerance = 1.0E-8
    AtomSitePotential {
        Gross {
            Atoms = C 2 # all C atoms and first H atom
            Vext [eV] = 1.5 # all with same potential
        }
        Gross {
            Atoms = 3:5 # The other hydrogen atoms
            Vext [eV] = 1.5 1.5 1.5 # individually specified atomic potentials
        }
	Gross {
            Atoms = O
            Vext [eV] = 1.4
        }
    }
    MaxAngularMomentum {
        H = "s"
        C = "p"
        O = "p"
    }
    Charge = 0.0
    Filling = Fermi {
        Temperature [Kelvin] = 100.0
    }
    SlaterKosterFiles = Type2FileNames {
        Prefix = {slakos/origin/mio-1-1/}
        Separator = "-"
        Suffix = ".skf"
    }
}

Options {
    WriteAutotestTag = Yes
}

Analysis {
    PrintForces = Yes
}

ParserOptions {
    ParserVersion = 15
}

Parallel {
    # Allow OMP threads explicitely to test for hybrid parallelisation with
    # MPI-binary. (Check the manual before using this in production runs!)
    UseOmpThreads = Yes
}
