Geometry = GenFormat {
    8  F
 Si
    1 1    0.0000000000E+00    0.0000000000E+00    0.0000000000E+00
    2 1    0.2500000000E+00    0.2500000000E+00    0.2500000000E+00
    3 1    0.5000000000E+00    0.5000000000E+00    0.0000000000E+00
    4 1    0.7500000000E+00    0.7500000000E+00    0.2500000000E+00
    5 1    0.5000000000E+00    0.0000000000E+00    0.5000000000E+00
    6 1    0.7500000000E+00    0.2500000000E+00    0.7500000000E+00
    7 1    0.0000000000E+00    0.5000000000E+00    0.5000000000E+00
    8 1    0.2500000000E+00    0.7500000000E+00    0.7500000000E+00
    0.0000000000E+00    0.0000000000E+00    0.0000000000E+00
    0.5459726363E+01    0.0000000000E+00    0.0000000000E+00
    0.0000000000E+00    0.5459726363E+01    0.0000000000E+00
    0.0000000000E+00    0.0000000000E+00    0.5459726363E+01
}

Hamiltonian = DFTB {
  SCC = Yes
  Solver = OMM {
    Sparse = No
  }
  MaxAngularMomentum = {
    Si = "p"
  }
  SlaterKosterFiles = Type2FileNames {
    Separator = "-"
    Suffix = ".skf"
  }
  SpinOrbit = {
    Dual = Yes
    Si [eV] = {0.0 0.29} # x10 larger for test purposes
  }
  KPointsAndWeights = SupercellFolding {
   2 0 0
   0 2 0
   0 0 2
   0.5 0.5 0.5
  }
}

Analysis = {
  CalculateForces = Yes
  MullikenAnalysis = Yes
}

Options = {
  WriteAutotestTag = Yes
}

ParserOptions = {
  ParserVersion = 7
}

Parallel {
  # Allow OMP threads explicitely to test for hybrid parallelisation with
  # MPI-binary. (Check the manual before using this in production runs!)
  UseOmpThreads = Yes
  Groups = 8
}
