Geometry = GenFormat {
2  S
 Si
   1 1  0.00000000000E+00  0.00000000000E+00  0.00000000000E+00
   2 1  0.00000000000E+00  0.00000000000E+00  0.00000000000E+00
   0.00000000000E+00  0.00000000000E+00  0.00000000000E+00
   0.22135460000E+01  0.24135460000E+01  0.00000000000E+00
   0.00000000000E+00  0.27135460000E+01  0.27135460000E+01
   0.29135460000E+01  0.00000000000E+00  0.20135460000E+01
#   1 1  0.00000000000E+00  0.00000000000E+00  0.00000000000E+00
#   2 1  0.14567730000E+01  0.10567730000E+01  0.19567730000E+01
#   0.00000000000E+00  0.00000000000E+00  0.00000000000E+00
#   0.22135460000E+01  0.24135460000E+01  0.00000000000E+00
#   0.00000000000E+00  0.27135460000E+01  0.27135460000E+01
#   0.29135460000E+01  0.00000000000E+00  0.20135460000E+01
}

Hamiltonian = DFTB {
  Scc = Yes
  SccTolerance = 1e-12  # Insane option for test purposes only
  MaxAngularMomentum = {
    Si = "p"
  }
  SlaterKosterFiles = {
    Si-Si = "./Si-Si.skf"
  }
  KPointsAndWeights = {
 0.250000000000000 0.250000000000000 0.250000000000000 1.00000000000000
 -0.250000000000000 0.250000000000000 0.250000000000000 1.00000000000000
 0.250000000000000 -0.250000000000000 0.250000000000000 1.00000000000000
 -0.250000000000000 -0.250000000000000 0.250000000000000 1.00000000000000
  }
}

Analysis {
  CalculateForces = Yes
  MullikenAnalysis = Yes
  AtomResolvedEnergies = Yes
}

ParserOptions = {
  ParserVersion = 9
}

Parallel {
  # Allow OMP threads explicitely to test for hybrid parallelisation with
  # MPI-binary. (Check the manual before using this in production runs!)
  UseOmpThreads = Yes
  Blacs {
    BlockSize = 4
  }
  Groups = 2
}
