# This uses the old (depreciated) SK interpolation, and is just included
# for regression purposes.
Geometry = GenFormat {
    2  S
    Si
    1    1    0.00000000000E+00   0.00000000000E+00   0.00000000000E+00
    2    1    0.13567730000E+01   0.13567730000E+01   0.13567730000E+01
    0.00000000000E+00   0.00000000000E+00   0.00000000000E+00
    0.27135460000E+01   0.27135460000E+01   0.00000000000E+00
    0.00000000000E+00   0.27135460000E+01   0.27135460000E+01
    0.27135460000E+01   0.00000000000E+00   0.27135460000E+01
}

Driver = {}

Hamiltonian = DFTB {
    SCC = No
    OldSKInterpolation = Yes
    MaxAngularMomentum = {
        Si = "p"
    }
    Charge = 0.0
    Filling = Fermi {
        Temperature [Kelvin] = 0.0
    }
    SlaterKosterFiles = {
        Si-Si = "./Si-Si.skf"
    }
    KPointsAndWeights = {
        0.0  0.0   0.0    1.0
    }
}

Analysis = {
    CalculateForces = Yes
    MullikenAnalysis = Yes
}

Options = {
    WriteAutotestTag = Yes
}

ParserOptions = {
    ParserVersion = 5
}

Parallel {
  # Allow OMP threads explicitely to test for hybrid parallelisation with
  # MPI-binary. (Check the manual before using this in production runs!)
  UseOmpThreads = Yes
}

