Geometry = GenFormat {
   10  C
  C  H
    1 1    0.7331695465E+00   -0.2285825021E+01    0.0000000000E+00
    2 1   -0.7331695465E+00   -0.2285825021E+01    0.0000000000E+00
    3 1    0.1161663794E+01   -0.9757842981E+00    0.0000000000E+00
    4 1   -0.1161663794E+01   -0.9757842981E+00    0.0000000000E+00
    5 1    0.0000000000E+00   -0.1408574841E+00    0.0000000000E+00
    6 2   -0.1364415075E+01   -0.3181153055E+01    0.0000000000E+00
    7 2    0.1364415075E+01   -0.3181153055E+01    0.0000000000E+00
    8 2    0.2198041243E+01   -0.6264901040E+00    0.0000000000E+00
    9 2   -0.2198041243E+01   -0.6264901040E+00    0.0000000000E+00
   10 2    0.0000000000E+00    0.9562444410E+00    0.0000000000E+00
}

Driver = {}

Hamiltonian = DFTB {
    SCC = Yes
    SCCTolerance = 1e-10  # Very tight for test purposes only
    MaxAngularMomentum = {
        C = "p"
        H = "s"
    }
    SpinConstants = {
        C = {-0.023} # HOMO Wpp
        H = {-0.072} # HOMO Wss
    }
    Charge = 0.0
    SpinPolarisation = Colinear {
        UnpairedElectrons = 1
    }
    SlaterKosterFiles = Type2FileNames {
        Prefix = "./"
        Separator = "-"
        Suffix = ".skf"
    }
}

ExcitedState {
    Casida {
        NrOfExcitations = 4
        StateOfInterest = 0
        OscillatorWindow [Debye] = 1E-3
        #http://webbook.nist.gov/cgi/cbook.cgi?ID=C2143535&Mask=1EFF
    }
}

Options {
    WriteAutotestTag = Yes
}

ParserOptions {
    ParserVersion = 5
}

Parallel {
  # Allow OMP threads explicitely to test for hybrid parallelisation with
  # MPI-binary. (Check the manual before using this in production runs!)
  UseOmpThreads = Yes
}

