Geometry = GenFormat {
  <<< "C18H12.gen"
}

Driver = {}

Hamiltonian = DFTB {

  SCC = Yes
  SCCTolerance = 1.0E-008  # Extremely small
  MaxSCCIterations = 1000

  Mixer = Broyden {}

  MaxAngularMomentum = {
    H = "s"
    C = "p"
  }

  SlaterKosterFiles = Type2FileNames {
    Prefix = "slakos/origin/hybrid/global/HC/"
    Separator = "-"
    Suffix = ".skf"
  }

  RangeSeparated = CAM {
    Screening = MatrixBased {}
  }

}

Options {
  WriteAutotestTag = Yes
}

Analysis {
  CalculateForces = Yes
}

ParserOptions {
  ParserVersion = 5
}

Parallel {
  # Allow OMP threads explicitely to test for hybrid parallelisation with
  # MPI-binary. (Check the manual before using this in production runs!)
  UseOmpThreads = Yes
}
