Geometry = GenFormat {
6  C
O H
1 1     -1.43934459     -0.15370440      0.00000000
2 1      1.40727283      0.15824426      0.00000000
3 2     -0.47595441      0.01312376      0.00000000
4 2     -1.87146143      0.71280249      0.00000000
5 2      1.70130425     -0.33540865     -0.77909584
6 2      1.70130425     -0.33540865      0.77909584
}
Driver = {}
Hamiltonian = DFTB {
  SCC = Yes
  SCCTolerance = 1.00E-6
  MaxAngularMomentum = {
    H = "s"
    O = "p"
  }
  SlaterKosterFiles = Type2FileNames {
    Separator = "-"
    Suffix = ".skf"
    Prefix = ""
    LowerCaseTypeName = No
  }
  ThirdOrder = Yes
  HubbardDerivs = {
    O = -0.14
    H = -0.07
  }
  DampXH = Yes
  DampXHExponent = 4.95
  OrbitalResolvedSCC = No
  OldSKInterpolation = No
  MaxSCCIterations = 100
  Mixer = Broyden {
    MixingParameter = 0.200000000000000
    CachedIterations = -1
    InverseJacobiWeight = 1.000000000000000E-002
    MinimalWeight = 1.00000000000000
    MaximalWeight = 100000.000000000
    WeightFactor = 1.000000000000000E-002
  }
  ElectricField = {}
  Charge = 0.000000000000000E+000
  ReadInitialCharges = No
  SpinPolarisation = {}
  Eigensolver = DivideAndConquer {}
  Filling = Fermi {
    Temperature = 1.000000000000000E-008
  }
  OrbitalPotential = {}
  Dispersion = {}
  LocalPotentials = {}
}
Options = {
  WriteAutotestTag = Yes
  CalculateForces = Yes
  WriteEigenvectors = No
  WriteDetailedXML = No
  WriteResultsTag = No
  WriteDetailedOut = Yes
  WriteBandOut = Yes
  AtomResolvedEnergies = No
  RestartFrequency = 20
  RandomSeed = 0
  MinimiseMemoryUsage = No
}
ParserOptions = {
  ParserVersion = 3
  WriteHSDInput = Yes
  WriteXMLInput = No
  StopAfterParsing = No
  IgnoreUnprocessedNodes = No
}
