Geometry = GenFormat {
6 C
O H
1   1   1.4980340000E+00   5.7000000000E-05  -1.2036000000E-01
2   2   1.9212430000E+00  -3.5700000000E-04   7.3654400000E-01
3   2   5.5003100000E-01  -3.2000000000E-05   6.0744000000E-02
4   1  -1.3873420000E+00  -5.1000000000E-05   1.1675300000E-01
5   2  -1.6783850000E+00   7.6269000000E-01  -3.8388900000E-01
6   2  -1.6784220000E+00  -7.6234900000E-01  -3.8454400000E-01
}
Hamiltonian = DFTB {
  Charge = 0
  SCC = Yes
  SCCTolerance = 1.0E-9
  MaxSCCIterations = 300
  Filling = Fermi {
    Temperature = 0.0
  }
  Mixer = Broyden {
    MixingParameter = 0.200000000000000
    InverseJacobiWeight = 1.000000000000000E-002
    MinimalWeight = 1.00000000000000
    MaximalWeight = 100000.000000000
    WeightFactor = 1.000000000000000E-002
  }
  MaxAngularMomentum = {
    H = "s"
    O = "p"
  }
  ThirdOrderFull = Yes
  HubbardDerivs = {
    H = -0.1857
    O = -0.1575
  }
  Multipole = OneCenterApproximation {
    AtomDIntergralScalings = {
      H = 0.0
      O = 0.2
    }
    AtomQIntergralScalings = {
      H = 0.0
      O = 3.0
    }
    OneCenterAtomIntergrals = {
      H:S_XX_S = 0.559763113574278
      O:S_X_Px = 0.608943777618081
      O:S_XX_S = 0.452148337809063
      O:Px_XX_Px = 0.838929210584501
      O:Py_XX_Py = 0.279643070194834
      O:Px_X_Dxx-yy = 0.00000000000000
      O:Px_X_Dzz = 0.00000000000000
      O:Py_Y_Dxx-yy = 0.00000000000000
      O:Pz_Z_Dzz = 0.00000000000000
      O:S_XX_Dxx-yy = 0.00000000000000
      O:S_XX_Dzz = 0.00000000000000
      O:S_YY_Dxx-yy = 0.00000000000000
      O:S_ZZ_Dzz = 0.00000000000000
      O:Dxy_XX_Dxy = 0.00000000000000
      O:Dyz_XX_Dyz = 0.00000000000000
      O:Dzz_XX_Dxx-yy = 0.00000000000000
      O:Dzz_XX_Dzz = 0.00000000000000
      O:Dzz_YY_Dxx-yy = 0.00000000000000
      O:Dzz_ZZ_Dzz = 0.00000000000000
      O:Dxz_XZ_Dzz = 0.00000000000000
      O:Dyz_YZ_Dxx-yy = 0.00000000000000
      H:S_X_Px = 0.00000000000000
      H:Px_X_Dxx-yy = 0.00000000000000
      H:Px_X_Dzz = 0.00000000000000
      H:Py_Y_Dxx-yy = 0.00000000000000
      H:Pz_Z_Dzz = 0.00000000000000
      H:Px_XX_Px = 0.00000000000000
      H:Py_XX_Py = 0.00000000000000
      H:S_XX_Dxx-yy = 0.00000000000000
      H:S_XX_Dzz = 0.00000000000000
      H:S_YY_Dxx-yy = 0.00000000000000
      H:S_ZZ_Dzz = 0.00000000000000
      H:Dxy_XX_Dxy = 0.00000000000000
      H:Dyz_XX_Dyz = 0.00000000000000
      H:Dzz_XX_Dxx-yy = 0.00000000000000
      H:Dzz_XX_Dzz = 0.00000000000000
      H:Dzz_YY_Dxx-yy = 0.00000000000000
      H:Dzz_ZZ_Dzz = 0.00000000000000
      H:Dxz_XZ_Dzz = 0.00000000000000
      H:Dyz_YZ_Dxx-yy = 0.00000000000000
    }
  }
  SlaterKosterFiles = Type2Filenames {
    Suffix = ".skf"
    Separator = "-"
    Prefix = ""
    LowerCaseTypeName = No
  }
  PolynomialRepulsive = {}
  ShellResolvedSCC = No
  OldSKInterpolation = No
  RangeSeparated = None {}
  ReadInitialCharges = No
  InitialCharges = {}
  HCorrection = None {}
  SpinPolarisation = {}
  ElectricField = {}
  Solver = RelativelyRobust {}
  OnSiteCorrection = {}
  Dispersion = {}
  ThirdOrder = No
  Differentiation = FiniteDiff {
    Delta = 1.220703125000000E-004
  }
  ForceEvaluation = "Traditional"
}
ParserOptions = {
  ParserVersion = 8
  IgnoreUnprocessedNodes = Yes
  WriteHSDInput = Yes
  WriteXMLInput = No
  StopAfterParsing = No
}
Analysis = {
  CalculateForces = Yes
  ProjectStates = {}
  WriteEigenvectors = No
  WriteBandOut = Yes
  MullikenAnalysis = Yes
  AtomResolvedEnergies = No
}
Options = {
  WriteAutotestTag = Yes
  WriteResultsTag = Yes
  WriteDetailedOut = Yes
  WriteDetailedXML = No
  RestartFrequency = 20
  RandomSeed = 0
  WriteHS = No
  WriteRealHS = No
  MinimiseMemoryUsage = No
  ShowFoldedCoords = No
  TimingVerbosity = 1
  WriteChargesAsText = No
}
Driver = {}
ExcitedState = {}
