Geometry = GenFormat {
    32  S
    Si C
     1    2   -0.32562550000E+01  -0.32562550000E+01  -0.32562550000E+01
     2    2    0.10854190000E+01  -0.32562550000E+01  -0.32562550000E+01
     3    2   -0.10854190000E+01  -0.10854190000E+01  -0.32562550000E+01
     4    2    0.32562550000E+01  -0.10854190000E+01  -0.32562550000E+01
     5    2   -0.32562550000E+01   0.10854190000E+01  -0.32562550000E+01
     6    2    0.10854190000E+01   0.10854190000E+01  -0.32562550000E+01
     7    2   -0.10854190000E+01   0.32562550000E+01  -0.32562550000E+01
     8    2    0.32562550000E+01   0.32562550000E+01  -0.32562550000E+01
     9    1   -0.21708370000E+01  -0.43416740000E+01  -0.21708370000E+01
    10    1    0.21708370000E+01  -0.43416740000E+01  -0.21708370000E+01
    11    1   -0.43416740000E+01  -0.21708370000E+01  -0.21708370000E+01
    12    1    0.00000000000E+00  -0.21708370000E+01  -0.21708370000E+01
    13    1   -0.21708370000E+01   0.00000000000E+00  -0.21708370000E+01
    14    1    0.21708370000E+01   0.00000000000E+00  -0.21708370000E+01
    15    1    0.00000000000E+00   0.21708370000E+01  -0.21708370000E+01
    16    1    0.43416740000E+01   0.21708370000E+01  -0.21708370000E+01
    17    2   -0.10854190000E+01  -0.32562550000E+01  -0.10854190000E+01
    18    2    0.32562550000E+01  -0.32562550000E+01  -0.10854190000E+01
    19    2   -0.32562550000E+01  -0.10854190000E+01  -0.10854190000E+01
    20    2    0.10854190000E+01  -0.10854190000E+01  -0.10854190000E+01
    21    2   -0.10854190000E+01   0.10854190000E+01  -0.10854190000E+01
    22    2    0.32562550000E+01   0.10854190000E+01  -0.10854190000E+01
    23    2   -0.32562550000E+01   0.32562550000E+01  -0.10854190000E+01
    24    2    0.10854190000E+01   0.32562550000E+01  -0.10854190000E+01
    25    1    0.00000000000E+00  -0.43416740000E+01   0.00000000000E+00
    26    1   -0.21708370000E+01  -0.21708370000E+01   0.00000000000E+00
    27    1    0.21708370000E+01  -0.21708370000E+01   0.00000000000E+00
    28    1    0.00000000000E+00   0.00000000000E+00   0.00000000000E+00
    29    1    0.43416740000E+01   0.00000000000E+00   0.00000000000E+00
    30    1   -0.21708370000E+01   0.21708370000E+01   0.00000000000E+00
    31    1    0.21708370000E+01   0.21708370000E+01   0.00000000000E+00
    32    1    0.43416740000E+01   0.43416740000E+01   0.00000000000E+00
    0.00000000000E+00   0.00000000000E+00   0.00000000000E+00
    0.86833480000E+01   0.00000000000E+00   0.00000000000E+00
    0.00000000000E+00   0.86833480000E+01   0.00000000000E+00
    0.00000000000E+00   0.00000000000E+00   0.86833480000E+01
}

Driver = {}

Hamiltonian = DFTB {
    SCC = Yes
    SCCTolerance = 1.0E-9 # Extremely small!
    MaxAngularMomentum = {
        Si = "p"
        C = "p"
    }
    Filling = Fermi {
        Temperature [Kelvin] = 100
    }
    SlaterKosterFiles = {
        Si-Si = "./Si-Si.skf"
        Si-C = "./Si-C.skf"
        C-Si = "./C-Si.skf"
        C-C = "./C-C.skf"
    }
    KPointsAndWeights = {
        0.0 0.0 0.0 1.0
    }
    ElectricField = {
	PointCharges [AA] = {
            GaussianBlurWidth = 0.76 # covalent radius
            CoordsAndCharges = {
# C atoms
-0.32562550000E+01 -0.32562550000E+01 0.10854190000E+01 -0.62437094
 0.10854190000E+01 -0.32562550000E+01 0.10854190000E+01 -0.62437094
-0.10854190000E+01 -0.10854190000E+01 0.10854190000E+01 -0.62437094
 0.32562550000E+01 -0.10854190000E+01 0.10854190000E+01 -0.62437094
-0.32562550000E+01  0.10854190000E+01 0.10854190000E+01 -0.62437094
 0.10854190000E+01  0.10854190000E+01 0.10854190000E+01 -0.62437094
-0.10854190000E+01  0.32562550000E+01 0.10854190000E+01 -0.62437094
 0.32562550000E+01  0.32562550000E+01 0.10854190000E+01 -0.62437094
-0.10854190000E+01 -0.32562550000E+01 0.32562550000E+01 -0.62437094
 0.32562550000E+01 -0.32562550000E+01 0.32562550000E+01 -0.62437094
-0.32562550000E+01 -0.10854190000E+01 0.32562550000E+01 -0.62437094
 0.10854190000E+01 -0.10854190000E+01 0.32562550000E+01 -0.62437094
-0.10854190000E+01  0.10854190000E+01 0.32562550000E+01 -0.62437094
 0.32562550000E+01  0.10854190000E+01 0.32562550000E+01 -0.62437094
-0.32562550000E+01  0.32562550000E+01 0.32562550000E+01 -0.62437094
 0.10854190000E+01  0.32562550000E+01 0.32562550000E+01 -0.62437094
	    }
	}
        PointCharges [AA] = {
            GaussianBlurWidth = 1.11 # covalent radius
            CoordsAndCharges = {
		# Si atom
-0.21708370000E+01 -0.43416740000E+01 0.21708370000E+01  0.62437094
-0.43416740000E+01 -0.21708370000E+01 0.21708370000E+01  0.62437094
 0.00000000000E+00 -0.21708370000E+01 0.21708370000E+01  0.62437094
-0.21708370000E+01  0.00000000000E+00 0.21708370000E+01  0.62437094
 0.21708370000E+01  0.00000000000E+00 0.21708370000E+01  0.62437094
 0.00000000000E+00  0.21708370000E+01 0.21708370000E+01  0.62437094
 0.43416740000E+01  0.21708370000E+01 0.21708370000E+01  0.62437094
 0.21708370000E+01  0.43416740000E+01 0.21708370000E+01  0.62437094
-0.21708370000E+01 -0.21708370000E+01 0.43416740000E+01  0.62437094
 0.21708370000E+01 -0.21708370000E+01 0.43416740000E+01  0.62437094
 0.00000000000E+00  0.00000000000E+00 0.43416740000E+01  0.62437094
 0.43416740000E+01  0.00000000000E+00 0.43416740000E+01  0.62437094
-0.21708370000E+01  0.21708370000E+01 0.43416740000E+01  0.62437094
 0.21708370000E+01  0.21708370000E+01 0.43416740000E+01  0.62437094
 0.00000000000E+00  0.43416740000E+01 0.43416740000E+01  0.62437094
 0.43416740000E+01  0.43416740000E+01 0.43416740000E+01  0.62437094
            }
        }
    }
}

Options = {
    WriteAutotestTag = Yes
}

Analysis = {
    CalculateForces = Yes
}

ParserOptions = {
    ParserVersion = 5
}

Parallel {
  # Allow OMP threads explicitely to test for hybrid parallelisation with
  # MPI-binary. (Check the manual before using this in production runs!)
  UseOmpThreads = Yes
}

