Geometry = GenFormat {
12 H
 C H 
1 1   1.39792890   0.00000000  -0.00000000
2 2   2.49455487  -0.00000000   0.00000000
3 1   0.69896445   1.21064194  -0.00000000
4 2   1.24727743   2.16034789   0.00000000
5 1  -0.69896445   1.21064194  -0.00000000
6 2  -1.24727743   2.16034789   0.00000000
7 1  -1.39792890  -0.00000000  -0.00000000
8 2  -2.49455487   0.00000000   0.00000000
9 1  -0.69896445  -1.21064194  -0.00000000
10 2  -1.24727743  -2.16034789   0.00000000
11 1   0.69896445  -1.21064194  -0.00000000
12 2   1.24727743  -2.16034789   0.00000000
  0 0 0
  3.0 30.0 1
}

Hamiltonian = DFTB {
  SCC = No
  MaxAngularMomentum = {
    C = "p"
    H = "s"
  }
  Filling = Fermi {
    Temperature [Kelvin] = 0.0
  }
  SlaterKosterFiles = {
    C-C = "./C-C.skf"
    C-H = "./C-H.skf"
    H-C = "./H-C.skf"
    H-H = "./H-H.skf"
  }
  KPointsAndWeights = {0 0 1}
}

Options = {
  WriteAutotestTag = Yes
}

Analysis = {
  CalculateForces = Yes
  MullikenAnalysis = Yes
}

ParserOptions = {
  ParserVersion = 8
}

Parallel {
  # Allow OMP threads explicitely to test for hybrid parallelisation with
  # MPI-binary. (Check the manual before using this in production runs!)
  UseOmpThreads = Yes
}
