Geometry =  GenFormat {
      8  C
 C H
1  1  0.100000 0.000003 0.850895  
1  1  0.100000 -0.000003 -0.650895 
1  2  0.000000 1.023978 1.045303   
1  2  0.100000 -1.023978 -1.245303 
1  2  0.786796 0.411997 -1.045297  
1  2  -0.986796 0.611997 -1.145297 
1  2  0.786796 -0.611997 1.045297  
1  2  -0.986796 -0.411997 1.245297 
}
Driver = {}
    
Hamiltonian = DFTB {
  SCC = Yes
  SCCTolerance = 1.00E-8
  MaxAngularMomentum {
    H = "s"
    C = "p"
  }
  SlaterKosterFiles = Type2FileNames {
    Separator = "-"
    Suffix  = ".skf"
  }
  ThirdOrderFull = Yes
  HubbardDerivs {
    C = -0.1492
    H = -0.1857
  }
  DampXH = Yes
  DampXHExponent = 4.05
}

Options = {
  WriteAutotestTag = Yes
  CalculateForces = Yes
}

ParserOptions = {
  ParserVersion = 3
}

Parallel {
  # Allow OMP threads explicitely to test for hybrid parallelisation with
  # MPI-binary. (Check the manual before using this in production runs!)
  UseOmpThreads = Yes
}

