Geometry = GenFormat {
6 C
 O H
   1   2     -.499735     -.006429      .000000
   2   1    -1.467047     -.147444      .000000
   3   1     1.392547      .133948      .000000
   4   2    -1.876914      .729873      .000000
   5   2     1.737135     -.325150     -.779513
   6   2     1.737135     -.325150      .779513
}

Driver = {}

Hamiltonian = DFTB {
  SCC = Yes
  SCCTolerance = 1e-5
  MaxSCCIterations = 100
  Mixer = Broyden {
    MixingParameter = 0.2
  }
  MaxAngularMomentum = {
    O = "p"
    H = "s"
  }
  Charge = 0.0
  SpinPolarisation = {}
  Eigensolver = DivideAndConquer {}
  Filling = Fermi {
    Temperature [Kelvin] = 0.0
  }
  SlaterKosterFiles = Type2FileNames {
    Separator = "-"
    Suffix = ".skf"
  }

  Dispersion = SlaterKirkwood {
    PolarRadiusCharge = HybridDependentPol {
      O = {
	CovalentRadius [Angstrom] = 0.6
	HybridPolarisations [Angstrom^3,Angstrom,] = {
	  0.56 0.56 0.56 0.56 0.56 0.56  3.8 3.8 3.8 3.8 3.8 3.8  3.15
	}
      }
      H = {
	CovalentRadius [Angstrom] = 0.6
	HybridPolarisations [Angstrom^3,Angstrom,] = {
	  0.386 0.386 0.000 0.000 0.000 0.000  3.5 3.5 3.5 3.5 3.5 3.5  0.8
	}
      }
    }
  }
}

Options = {
  CalculateForces = Yes
  WriteAutotestTag = Yes
}

ParserOptions = {
  ParserVersion = 3
}

Parallel {
  # Allow OMP threads explicitely to test for hybrid parallelisation with
  # MPI-binary. (Check the manual before using this in production runs!)
  UseOmpThreads = Yes
}

