Geometry = GenFormat {
  <<< Acene_rattled.gen
}

Hamiltonian = DFTB {

  SCC = Yes
  MaxSccIterations = 100
  SccTolerance = 1e-12

  Filling = Fermi {
    Temperature [K] = 0.0
  }

  MaxAngularMomentum = {
    C = "p"
    H = "s"
  }

  SlaterKosterFiles = Type2FileNames {
    Prefix = "slakos/origin/ob2-1-1/shift/"
    Separator = "-"
    Suffix = ".skf"
  }

  Hybrid = LC {
    CoulombMatrix = Truncated {
      CoulombCutoff = 0.581327E+01
      GSummationCutoff = 0.116265E+02
    }
    Screening = MatrixBased {}
  }

  KPointsAndWeights = SupercellFolding {
     1   0   0
     0   1   0
     0   0   7
    0.0 0.0 0.0
  }

}

Analysis {
  PrintForces = Yes
}

Options {
  WriteResultsTag = No
  WriteAutotestTag = Yes
}

ParserOptions {
  ParserVersion = 14
}

Parallel {
  Groups = 4
  # Allow OMP threads explicitely to test for hybrid parallelisation with
  # MPI-binary. (Check the manual before using this in production runs!)
  UseOmpThreads = Yes
}
