Geometry = GenFormat {
    2  H
    C
    1 1    0.2756230044E+03    0.2849950460E+03    0.1794011798E+01
    2 1    0.2756230044E+03    0.2849950460E+03    0.3569110265E+00
    0 0 0
    0.2140932670E+01 1.8E-1 1000
}

Driver = LBFGS {}

Hamiltonian = DFTB {
    SCC = No
    MaxAngularMomentum = {
        C = "p"
    }
    Filling = Fermi {
        Temperature [Kelvin] = 100.0
    }
    SlaterKosterFiles = Type2FileNames {
        Prefix = {slakos/origin/mio-1-1/}
        Separator = "-"
        Suffix = ".skf"
    }
    KPointsAndWeights = HelicalSampled {10 200 0.5 0.5}
}

Options = {
    WriteAutotestTag = Yes
}

Analysis = {
    CalculateForces = Yes
    MullikenAnalysis = Yes
}

ParserOptions = {
    ParserVersion = 10
}
