Geometry = GenFormat {
  <<< geo.gen
}

Hamiltonian = DFTB {

  SCC = Yes
  SCCTolerance = 1.0E-8 # Extremely small

  MaxAngularMomentum = {
    H = "s"
    C = "p"
  }

  SlaterKosterFiles = Type2FileNames {
    Prefix = "slakos/origin/ob2-1-1/shift/"
    Separator = "-"
    Suffix = ".skf"
  }

  RangeSeparated = LC {
    Screening = NeighbourBased {}
  }

}

Options {
  WriteAutotestTag = No
}

ParserOptions {
  ParserVersion = 7
}
