Geometry = GenFormat {
  <<< geo.gen
}

DisplayModes {
  Animate = No
}

SlaterKosterFiles = Type2FileNames {
  Prefix = "slakos/origin/mio-1-1/"
  Separator = "-"
  Suffix = ".skf"
}

Hessian = {
  <<< "hessian.out"
}

InputVersion = 3
