Geometry = GenFormat {
10 C
N C O H
     1   1    3.5205584868215638E+00    5.2586631877860155E+00   -1.3618628219955886E+00
     2   2    2.4767203947401519E+00    5.5390643759010221E+00   -2.3584460554605764E+00
     3   2    2.9413536477875861E+00    5.1617138280737160E+00   -3.7752364578197222E+00
     4   3    2.2062717929822799E+00    5.2039372592954800E+00   -4.7349340292409758E+00
     5   3    4.2313880723354291E+00    4.8005006916687085E+00   -3.8475401476977291E+00
     6   4    4.5704127259019280E+00    4.8524804639080577E+00   -2.9220431582093460E+00
     7   4    1.5366522832825265E+00    5.0114326760678090E+00   -2.1677443639326635E+00
     8   4    2.2404370134079734E+00    6.6075449909078712E+00   -2.3792974117909962E+00
     9   4    3.3126454532863838E+00    4.4395842845133631E+00   -8.0040753374917006E-01
    10   4    3.6864420285848634E+00    6.0379295114159870E+00   -7.3509416656657622E-01
}

Hamiltonian = DFTB {
  Charge = 0
  SCC = Yes
  SCCTolerance = 1.0E-9
  MaxSCCIterations = 300
  Filling = Fermi {
    Temperature = 0.0
  }
  Mixer = Broyden {}
  MaxAngularMomentum = {
    H = "s"
    C = "p"
    N = "p"
    O = "p"
  }

  ThirdOrderFull = Yes
  HubbardDerivs = {
    H = -0.1857
    C = -0.1492
    N = -0.1535
    O = -0.1575
  }

  Mdftb = OneCenterApproximation {
    AtomDIntegralScalings = {
      H = 0.0
      C = 0.8
      N = 0.6
      O = 0.2
    }
    AtomQIntegralScalings = {
      H = 0.0
      C = 2.6
      N = 3.4
      O = 3.0
    }
    OneCenterAtomIntegrals = {
      H:S|XX|S   = 0.55976
      C:S|X|Px   = 0.79621
      C:S|XX|S   = 0.76689
      C:Px|XX|Px = 1.38550
      C:Py|XX|Py = 0.46183
      N:S|X|Px   = 0.68857
      N:S|XX|S   = 0.57638
      N:Px|XX|Px = 1.05308
      N:Py|XX|Py = 0.35103
      O:S|X|Px   = 0.60894
      O:S|XX|S   = 0.45215
      O:Px|XX|Px = 0.83893
      O:Py|XX|Py = 0.27964
    }
  }

  SlaterKosterFiles = Type2Filenames {
    Prefix = {slakos/origin/m3ob-test/}
    Suffix = ".skf"
    Separator = "-"
  }
}

ParserOptions = {
  ParserVersion = 14
  IgnoreUnprocessedNodes = No
}

Analysis = {
  PrintForces = Yes
}

Options = {
  WriteAutotestTag = Yes
  WriteResultsTag = Yes
}

Parallel{
  Blacs{BlockSize=2}
  # Allow OMP threads explicitely to test for hybrid parallelisation with
  # MPI-binary. (Check the manual before using this in production runs!)
  UseOmpThreads = Yes
}
