Geometry = GenFormat {
8 C
O N H
     1   1   -2.2407464801117563E+00    4.1459325588054510E+00    3.0312181826181841E+00
     2   2   -3.9481639422940176E+00    2.0676218909533106E+00    3.1679802024375672E+00
     3   3   -3.2768356131539531E+00    2.8831219157217740E+00    3.1117689976324292E+00
     4   3   -4.4212499407167583E+00    2.0700362136208921E+00    4.0702340441819045E+00
     5   3   -1.3185499827360940E+00    4.1484505226111370E+00    3.2952245826832827E+00
     6   3   -2.4364461124795205E+00    5.0282896698582631E+00    2.7098163361321106E+00
     7   3   -3.4401781280346437E+00    1.1911290005729334E+00    3.0604565825306258E+00
     8   3   -4.6436214430809093E+00    2.1381528558109753E+00    2.4268898995125481E+00
}

Hamiltonian = DFTB {
  Charge = +1
  SCC = Yes
  SCCTolerance = 1.0E-9
  MaxSCCIterations = 300
  Filling = Fermi {
    Temperature = 0.0
  }
  Mixer = Broyden {}
  MaxAngularMomentum = {
    H = "s"
    N = "p"
    O = "p"
  }

  ThirdOrderFull = Yes
  HubbardDerivs = {
    H = -0.1857
    N = -0.1535
    O = -0.1575
  }

  Mdftb = OneCenterApproximation {
    AtomDIntegralScalings = {
      H = 0.0
      N = 0.6
      O = 0.2
    }
    AtomQIntegralScalings = {
      H = 0.0
      N = 3.4
      O = 3.0
    }
    OneCenterAtomIntegrals = {
      H:S|XX|S   = 0.55976
      N:S|X|Px   = 0.68857
      N:S|XX|S   = 0.57638
      N:Px|XX|Px = 1.05308
      N:Py|XX|Py = 0.35103
      O:S|X|Px   = 0.60894
      O:S|XX|S   = 0.45215
      O:Px|XX|Px = 0.83893
      O:Py|XX|Py = 0.27964
    }
  }

  SlaterKosterFiles = Type2Filenames {
    Prefix = {slakos/origin/m3ob-test/}
    Suffix = ".skf"
    Separator = "-"
  }
}

ParserOptions = {
  ParserVersion = 14
  IgnoreUnprocessedNodes = No
}

Analysis = {
  PrintForces = Yes
}

Options = {
  WriteAutotestTag = Yes
  WriteResultsTag = Yes
}
