Geometry = GenFormat {
2  S
 Si
     1    1    0.00000000000E+00   0.00000000000E+00   0.00000000000E+00
     2    1    0.13567730000E+01   0.13567730000E+01   0.13567730000E+01
   0.00000000000E+00   0.00000000000E+00   0.00000000000E+00
   0.27135460000E+01   0.27135460000E+01   0.00000000000E+00
   0.00000000000E+00   0.27135460000E+01   0.27135460000E+01
   0.27135460000E+01   0.00000000000E+00   0.27135460000E+01
}
Driver = {}
Hamiltonian = DFTB {
  SCC = No
  MaxAngularMomentum = {
    Si = "p"
  }
  Charge = 0.000000000000000E+000
  Eigensolver = Standard {}
  Filling = Fermi {
    Temperature [Kelvin] = 1.000000000000000E-008
  }
  SlaterKosterFiles = {
    Si-Si = "./Si-Si.skf"
  }
  KPointsAndWeights = {
 0.250000000000000 0.250000000000000 0.250000000000000 1.00000000000000
 -0.250000000000000 0.250000000000000 0.250000000000000 1.00000000000000
 0.250000000000000 -0.250000000000000 0.250000000000000 1.00000000000000
 -0.250000000000000 -0.250000000000000 0.250000000000000 1.00000000000000
  }
}
Options = {
  CalculateForces = Yes
  MullikenAnalysis = Yes
  WriteAutotestTag = Yes
  AtomResolvedEnergies = Yes
}

ParserOptions = {
  ParserVersion = 3
}

Parallel {
  # Allow OMP threads explicitely to test for hybrid parallelisation with
  # MPI-binary. (Check the manual before using this in production runs!)
  UseOmpThreads = Yes
}

