Geometry = GenFormat {
    <<< "butadiene.gen"
}

Driver = {}

Hamiltonian = DFTB {
    SCC = Yes
    SCCTolerance = 1e-10  # Very tight for test purposes only
    MaxAngularMomentum = {
        C = "p"
        H = "s"
    }
    SlaterKosterFiles = Type2FileNames {
        Prefix = "./"
        Separator = "-"
        Suffix = ".skf"
    }
    SpinConstants = {
        C = {-0.023} # HOMO Wpp
        H = {-0.072} # HOMO Wss
    }
}

ExcitedState {
    Casida {
        NrOfExcitations = 10
        StateOfInterest = 1
        Symmetry = Triplet
        WriteMulliken = Yes
    }
}

Analysis = {
    CalculateForces = Yes
}

Options {
    WriteAutotestTag = Yes
}

ParserOptions {
    ParserVersion = 5
}            

Parallel {
  # Allow OMP threads explicitely to test for hybrid parallelisation with
  # MPI-binary. (Check the manual before using this in production runs!)
  UseOmpThreads = Yes
}

