Geometry = GenFormat {
2  S
 Ga As
     1    1    0.00000000000E+00   0.00000000000E+00   0.00000000000E+00
     2    2    0.13567730000E+01   0.13567730000E+01   0.13567730000E+01
   0.00000000000E+00   0.00000000000E+00   0.00000000000E+00
   0.27135460000E+01   0.27135460000E+01   0.00000000000E+00
   0.00000000000E+00   0.27135460000E+01   0.27135460000E+01
   0.27135460000E+01   0.00000000000E+00   0.27135460000E+01
}

Driver = {}

Hamiltonian = DFTB {
  SCC = Yes
  SCCTolerance = 1.0E-007  # Very small!
  MaxSCCIterations = 1000
  Mixer = Broyden {}
  MaxAngularMomentum = {
    Ga = "d"
    As = "p"
  }
  Filling = Fermi {
    Temperature [Kelvin] = 1.0E-006
  }
  SlaterKosterFiles = {
    Ga-Ga = "./Ga-Ga.skf"
    Ga-As = "./Ga-As.skf"
    As-Ga = "./As-Ga.skf"
    As-As = "./As-As.skf"
  }
  KPointsAndWeights = {
 0.000000000000000E+000 0.000000000000000E+000 0.000000000000000E+000 1.00000000000000
  }
}

Options = {
  WriteAutotestTag = Yes
  CalculateForces = Yes
}

ParserOptions = {
  ParserVersion = 3
}

Parallel {
  # Allow OMP threads explicitely to test for hybrid parallelisation with
  # MPI-binary. (Check the manual before using this in production runs!)
  UseOmpThreads = Yes
}

