Geometry = GenFormat {
8  S
 Si
     1    1    0.00000000000E+00   0.00000000000E+00   0.00000000000E+00
     2    1    0.13567730000E+01   0.13567730000E+01   0.13567730000E+01
     3    1    0.27135460000E+01   0.27135460000E+01   0.00000000000E+00
     4    1    0.40703190000E+01   0.40703190000E+01   0.13567730000E+01
     5    1    0.27135460000E+01   0.00000000000E+00   0.27135460000E+01
     6    1    0.40703190000E+01   0.13567730000E+01   0.40703190000E+01
     7    1    0.00000000000E+00   0.27135460000E+01   0.27135460000E+01
     8    1    0.13567730000E+01   0.40703190000E+01   0.40703190000E+01
   0.00000000000E+00   0.00000000000E+00   0.00000000000E+00
   0.54270920000E+01   0.00000000000E+00   0.00000000000E+00
   0.00000000000E+00   0.54270920000E+01   0.00000000000E+00
   0.00000000000E+00   0.00000000000E+00   0.54270920000E+01
}

Driver = VelocityVerlet {
  Steps = 200
  TimeStep [Femtosecond] = 1.0
  Thermostat = NoseHoover {
    Temperature [Kelvin] = 273.15
    CouplingStrength [cm^-1] = 600
  }
  OutputPrefix = "geo_end"
}

Hamiltonian = DFTB {
  MaxAngularMomentum = {
    Si = "p"
  }
  Filling = Fermi {
    Temperature [Kelvin] = 273.15
  }
  SlaterKosterFiles = {
    Si-Si = "./Si-Si.skf"
  }
  KPointsAndWeights = SupercellFolding { # not converged
   2 0 0
   0 2 0
   0 0 2
   0.5 0.5 0.5
  }
}

Options = {
  WriteAutotestTag = Yes
  RandomSeed = 12345
}

ParserOptions = {
  ParserVersion = 4
}

Parallel {
  # Allow OMP threads explicitely to test for hybrid parallelisation with
  # MPI-binary. (Check the manual before using this in production runs!)
  UseOmpThreads = Yes
}

