Geometry = GenFormat {
5 C
O H
     1   1   -2.6554009732168287E+00   -4.0713915933752629E+00    3.2207657775589924E+00
     2   1   -3.5463706411855904E+00   -6.3343688931956361E+00    3.0979273148637585E+00
     3   2   -3.1010615415197864E+00   -5.2034345225198049E+00    3.1718521446768482E+00
     4   2   -3.2473439696024800E+00   -3.5667357223930996E+00    2.6648973170836645E+00
     5   2   -2.9374256760827429E+00   -6.7837455997308957E+00    2.5137047495451847E+00
}

Hamiltonian = DFTB {
  Charge = -1
  SCC = Yes
  SCCTolerance = 1.0E-9
  MaxSCCIterations = 300
  Filling = Fermi {
    Temperature = 0.0
  }
  Mixer = Broyden {}
  MaxAngularMomentum = {
    H = "s"
    O = "p"
  }

  ThirdOrderFull = Yes
  HubbardDerivs = {
    H = -0.1857
    O = -0.1575
  }

  Mdftb = OneCenterApproximation {
    AtomDIntegralScalings = {
      H = 0.0
      O = 0.2
    }
    AtomQIntegralScalings = {
      H = 0.0
      O = 3.0
    }
    OneCenterAtomIntegrals = {
      H:S|XX|S   = 0.55976
      O:S|X|Px   = 0.60894
      O:S|XX|S   = 0.45215
      O:Px|XX|Px = 0.83893
      O:Py|XX|Py = 0.27964
    }
  }

  SlaterKosterFiles = Type2Filenames {
    Prefix = {slakos/origin/m3ob-test/}
    Suffix = ".skf"
    Separator = "-"
  }
}

ParserOptions = {
  ParserVersion = 14
  IgnoreUnprocessedNodes = No
}

Analysis = {
  PrintForces = Yes
}

Options = {
  WriteAutotestTag = Yes
  WriteResultsTag = Yes
}
