Geometry = xyzFormat {
 <<< "struc.xyz"
}

Driver {}

Hamiltonian = DFTB {
  Solvation = GeneralisedBorn {
    Solvent = fromConstants {
      Epsilon = Inf
      MolecularMass = 1.0
      Density = 1.0
    }
    Kernel = "P16"
    FreeEnergyShift [kcal/mol] = 3.37941625
    Radii = vanDerWaalsRadiiD3 {}
    Descreening = values {
       H = 0.97012484
       C = 0.88983137
       O = 1.05601217
    }
    CM5 {}
    BornScale = 1.18273365
    BornOffset = 1.517063677302E-02
    OBCCorrection = {1.00 0.80 4.85}
    Cutoff = 30
  }
  SCC = Yes
  SccTolerance = 1e-10
  MaxAngularMomentum {
    H = "s"
    O = "p"
    C = "p"
  }
  Charge = -1
  SlaterKosterFiles = Type2FileNames {
Prefix = {slakos/origin/mio-1-1/}
    Separator = "-"
    Suffix = ".skf"
  }
}

Options {
  WriteAutotestTag = Yes
}

Analysis {
  CalculateForces = Yes
}

ParserOptions {
  ParserVersion = 8
}

Parallel {
  UseOmpThreads = Yes
}
