Geometry = GenFormat {
  <<< "geo.gen"
}

Hamiltonian = DFTB {
  Scc = Yes
  SccTolerance = 1.000000000000000E-012
  MaxAngularMomentum {
    H = "s"
    C = "p"
    N = "p"
    O = "p"
  }
  SlaterKosterFiles = Type2FileNames {
    Prefix = "slakos/origin/mio-1-1/"
    Separator = "-"
    Suffix = ".skf"
  }
  Chimes {
    ParameterFile = "slakos/origin/chimes/test_params.CHON.txt"
  }
  KPointsAndWeights {
    0.0 0.0 0.0 1.0
  }
}

Options {
  WriteAutotestTag = Yes
}

Analysis {
  CalculateForces = Yes
}

ParserOptions {
  ParserVersion = 9
}

Parallel {
  # Allow OMP threads explicitely to test for hybrid parallelisation with
  # MPI-binary. (Check the manual before using this in production runs!)
  UseOmpThreads = Yes
}
