Geometry = GenFormat {
29  C
 C H N O
     1    1   -0.19629370000E+01  -0.55919000000E+00  -0.10000000000E-05
     2    1   -0.33317650000E+01  -0.75807900000E+00   0.00000000000E+00
     3    1   -0.42035600000E+01   0.35517600000E+00   0.00000000000E+00
     4    1   -0.36800820000E+01   0.16678010000E+01   0.00000000000E+00
     5    1   -0.23085630000E+01   0.18521780000E+01   0.00000000000E+00
     6    1   -0.14099660000E+01   0.74973600000E+00   0.00000000000E+00
     7    4   -0.13120710000E+01  -0.14424760000E+01  -0.10000000000E-05
     8    4   -0.37496190000E+01  -0.17712650000E+01   0.00000000000E+00
     9    3   -0.55280400000E+01   0.13133100000E+00   0.10000000000E-05
    10    4   -0.43588580000E+01   0.25300990000E+01   0.10000000000E-05
    11    4   -0.18977890000E+01   0.28706470000E+01   0.00000000000E+00
    12    1   -0.87750000000E-02   0.10607810000E+01  -0.10000000000E-05
    13    1    0.25012970000E+01   0.75051100000E+00   0.00000000000E+00
    14    1    0.25168350000E+01  -0.15264070000E+01   0.00000000000E+00
    15    1    0.11121720000E+01   0.25730700000E+00   0.00000000000E+00
    16    4    0.23325000000E+00   0.21349970000E+01  -0.10000000000E-05
    17    3    0.29640660000E+01   0.18701570000E+01  -0.10000000000E-05
    18    2    0.12248470000E+01  -0.11449670000E+01   0.00000000000E+00
    19    2    0.33117570000E+01  -0.43862500000E+00   0.00000000000E+00
    20    1    0.29718240000E+01  -0.29336720000E+01   0.00000000000E+00
    21    4    0.40643130000E+01  -0.29865640000E+01   0.10000000000E-05
    22    4    0.25930580000E+01  -0.34613300000E+01   0.88579300000E+00
    23    4    0.25930590000E+01  -0.34613300000E+01  -0.88579300000E+00
    24    1    0.47518850000E+01  -0.40000100000E+00   0.00000000000E+00
    25    4    0.50559000000E+01   0.65577900000E+00   0.00000000000E+00
    26    4    0.51598530000E+01  -0.89575300000E+00   0.89579000000E+00
    27    4    0.51598540000E+01  -0.89575400000E+00  -0.89578900000E+00
    28    4   -0.60314810000E+01   0.97304100000E+00   0.10000000000E-05
    29    4    0.43507400000E+00  -0.18035690000E+01   0.00000000000E+00
}
Driver = {}
Hamiltonian = DFTB {
  SCC = No
  MaxAngularMomentum = {
    C = "p"
    H = "s"
    N = "p"
    O = "p"
  }
  Charge = 1
  Filling = Fermi {
    Temperature [Kelvin] = 1.000000000000000E-008
  }
  SlaterKosterFiles = Type2FileNames {
    Separator = "-"
    Suffix = ".skf"
  }
}

Options = {
  MullikenAnalysis = Yes
  CalculateForces = Yes
  WriteAutotestTag = Yes
  AtomResolvedEnergies = Yes
}

ParserOptions = {
  ParserVersion = 3
}

Parallel {
  # Allow OMP threads explicitely to test for hybrid parallelisation with
  # MPI-binary. (Check the manual before using this in production runs!)
  UseOmpThreads = Yes
}

