Driver = {}

Hamiltonian = DFTB {
  SCC = Yes
  SCCTolerance = 1.0E-8
  MaxAngularMomentum {
    Na = "p"
    Cl = "p"
  }
  SlaterKosterFiles = Type2FileNames {
    Separator = "-"
    Suffix  = ".skf"
  }
  KPointsAndWeights = SuperCellFolding {
    1 0 0
    0 1 0
    0 0 1
    0. 0. 0.
  }
}

Options = {
  WriteAutotestTag = Yes
   WriteDetailedOut=Yes
   TimingVerbosity = 1
}

Analysis = {
  CalculateForces = Yes
}

ParserOptions = {
  ParserVersion = 8
}

Parallel {
  # Allow OMP threads explicitely to test for hybrid parallelisation with
  # MPI-binary. (Check the manual before using this in production runs!)
  UseOmpThreads = Yes
}
