Geometry = GenFormat {
2  C
 H
     1 1 0.0 0.0  10.0
     1 1 0.0 0.0 -10.0
}
Driver = {}
Hamiltonian = DFTB {
  SCC = Yes
  SCCTolerance = 1.0E-007   # Very small!
  MaxSCCIterations = 1000
  Mixer = Simple {
    MixingParameter = 5.0E-002
  }
  MaxAngularMomentum = {
    H = "s"
  }
  Charge = 0.0
  SpinPolarisation = Colinear {
    UnpairedElectrons = 0.0
    InitialSpins = {
      AtomSpin = {
        Atoms = { 1 }
        SpinPerAtom = -1.0
      }
      AtomSpin = {
        Atoms = { 2 }
        SpinPerAtom = 1.0
      }
    }
  }
  SpinConstants = { 
    H = {
       -6.4E-002
    }
  }
  Filling = Fermi {
    Temperature [Kelvin] = 10.0
  }
  SlaterKosterFiles = {
    H-H = "H-H.skf"
  }
}

Options = {
  CalculateForces = Yes
  WriteAutotestTag = Yes
}

ParserOptions = {
  ParserVersion = 4
}

Parallel {
  # Allow OMP threads explicitely to test for hybrid parallelisation with
  # MPI-binary. (Check the manual before using this in production runs!)
  UseOmpThreads = Yes
}

