Geometry = GenFormat {
8 C
O N H
     1   1    2.8369026365315175E+00    4.4278251798278392E+00   -3.1684290622696190E+00
     2   2    3.3597662981596930E+00    1.7893606702792311E+00   -3.0325169747306560E+00
     3   3    3.1523238783299408E+00    2.8253041924333000E+00   -3.0841926635136709E+00
     4   3    4.1604773026180872E+00    1.5666751914270034E+00   -3.6217124012638076E+00
     5   3    2.2528678882540740E+00    4.8650820854193464E+00   -3.7912146678403023E+00
     6   3    3.1990792543539142E+00    5.1137175357366100E+00   -2.6040432562223312E+00
     7   3    2.5523602787252782E+00    1.2567747341517628E+00   -3.3523582535461052E+00
     8   3    3.5693029011619091E+00    1.5243144341261552E+00   -2.0714261911948966E+00
}

Hamiltonian = DFTB {
  Charge = +1
  SCC = Yes
  SCCTolerance = 1.0E-9
  MaxSCCIterations = 300
  Filling = Fermi {
    Temperature = 0.0
  }
  Mixer = Broyden {}
  MaxAngularMomentum = {
    H = "s"
    N = "p"
    O = "p"
  }

  ThirdOrderFull = Yes
  HubbardDerivs = {
    H = -0.1857
    N = -0.1535
    O = -0.1575
  }

  Mdftb = OneCenterApproximation {
    AtomDIntegralScalings = {
      H = 0.0
      N = 0.6
      O = 0.2
    }
    AtomQIntegralScalings = {
      H = 0.0
      N = 3.4
      O = 3.0
    }
    OneCenterAtomIntegrals = {
      H:S|XX|S   = 0.55976
      N:S|X|Px   = 0.68857
      N:S|XX|S   = 0.57638
      N:Px|XX|Px = 1.05308
      N:Py|XX|Py = 0.35103
      O:S|X|Px   = 0.60894
      O:S|XX|S   = 0.45215
      O:Px|XX|Px = 0.83893
      O:Py|XX|Py = 0.27964
    }
  }

  SlaterKosterFiles = Type2Filenames {
    Prefix = {slakos/origin/m3ob-test/}
    Suffix = ".skf"
    Separator = "-"
  }
}

ParserOptions = {
  ParserVersion = 14
  IgnoreUnprocessedNodes = No
}

Analysis = {
  PrintForces = Yes
}

Options = {
  WriteAutotestTag = Yes
  WriteResultsTag = Yes
}

Parallel{
  Blacs{BlockSize=2}
  # Allow OMP threads explicitely to test for hybrid parallelisation with
  # MPI-binary. (Check the manual before using this in production runs!)
  UseOmpThreads = Yes
}
